 # Version information for this restart file 
 # current date 2023-07-10 05:34:50.089
 # current working dir /scratch365/omendibl/Phase_2/NNFFs/butane_3/AIMD_300K_20ps
 # Program compiled at                              Thu Sep 15 06:09:12 EDT 2022
 # Program compiled on                                         epycfe.crc.nd.edu
 # Program compiled for                                                    local
 # Source code revision number                                       git:bd915bf
 &GLOBAL
   PRINT_LEVEL  MEDIUM
   PROJECT_NAME Butane_aimd_test
   RUN_TYPE  MD
 &END GLOBAL
 &MOTION
   &MD
     ENSEMBLE  NVT
     STEPS  40000
     TIMESTEP     4.9999999999999994E-01
     STEP_START_VAL  20000
     TIME_START_VAL     1.0000000000003954E+04
     ECONS_START_VAL    -2.8655824355317748E+01
     TEMPERATURE     3.0000000000000000E+02
     &THERMOSTAT
       TYPE  GLE
       REGION  MASSIVE
       &GLE
         NDIM  5
         A_SCALE     1.0000000000000000E+00
         A_LIST     1.8595758612559999E+02    2.7263853498399998E-01    1.1526100454610001E+01   -3.6414578262600003E+01 \
             2.3173375816020001E+02
         A_LIST    -2.7809524712060002E-01    8.5951591808710006E-05    7.2189048017650004E-01   -1.9844539343859999E-01 \
             4.2409257583420001E-01
         A_LIST    -1.4825808131210000E+01   -7.2189048017650004E-01    1.3590902121280000E+00    5.1498896280349999E+00 \
            -9.9949268450990001E+00
         A_LIST    -1.0372189126880000E+01    1.9844539343859999E-01   -5.1498896280349999E+00    2.6661910891169999E+01 \
             1.1507715495310000E+01
         A_LIST     2.1801346360420001E+02   -4.2409257583420001E-01    9.9949268450990001E+00   -1.1507715495310000E+01 \
             3.0958394565589998E+02
         &THERMOSTAT_ENERGY
               3.0095514644393724E-03
               2.5113956309394461E-03
               1.3017947492553594E-02
              -4.7138858881889800E-03
               3.7013413456413679E-03
              -1.1728552977753177E-02
               3.2150470184334083E-02
              -1.8476997214054477E-02
               1.5328037007806236E-02
              -2.4866232296947349E-03
               1.6263838274804612E-02
              -1.1773606259339485E-02
              -2.8368958361492336E-02
              -2.1032526635340131E-02
              -1.3887741517823014E-02
               7.5237814417982246E-02
              -7.6764683242586854E-02
               9.0152025335223096E-03
              -2.9654280829341337E-02
               2.8197680593794273E-02
               1.7578785744299104E-03
              -8.2509886683911106E-03
               1.6455532955700729E-03
               9.1053086435622238E-03
               2.1572909098046864E-02
               2.0677211002570876E-03
              -3.5383813417727422E-02
              -3.8686959870589115E-02
              -5.1877779119467362E-03
               1.8546428464571448E-02
               4.6955225928626818E-02
              -2.4648638345095078E-02
               9.8269072387925475E-03
              -1.5914456100209414E-02
              -1.3724983253626826E-02
              -1.3639738283582951E-02
               3.3083953996897647E-02
              -8.7852047749088936E-03
               2.0953756446400417E-02
               1.3304074660950285E-02
              -1.6878850523317824E-02
               2.0274527660677170E-02
         &END THERMOSTAT_ENERGY
         &RNG_INIT
Wiener process for Thermostat # 1        1 F T T  -7.2789783614283488E-01         392948317.0        3170354507.0         365899561.0         365979070.0        1701140327.0        3858646012.0             12345.0             12345.0             12345.0             12345.0             12345.0             12345.0             12345.0             12345.0             12345.0             12345.0             12345.0             12345.0
Wiener process for Thermostat # 2        1 F T T   1.4963144934113668E+00        3647065461.0        1620452266.0        1725730616.0        1540657452.0        2826448965.0        1198257548.0        3692455944.0        1366884236.0        2968912127.0         335948734.0        4161675175.0         475798818.0        3692455944.0        1366884236.0        2968912127.0         335948734.0        4161675175.0         475798818.0
Wiener process for Thermostat # 3        1 F T T   1.3310028953562842E+00        3867640074.0        3979815801.0        2472629094.0        1621018508.0         908596347.0         799622126.0        1015873554.0        1310354410.0        2249465273.0         994084013.0        2912484720.0        3876682925.0        1015873554.0        1310354410.0        2249465273.0         994084013.0        2912484720.0        3876682925.0
Wiener process for Thermostat # 4        1 F T T  -5.2685730749431592E-01        3928066282.0        3390717915.0        4106003416.0        2518662586.0        1588979487.0        1964246137.0        2338701263.0        1119171942.0        2570676563.0         317077452.0        3194180850.0         618832124.0        2338701263.0        1119171942.0        2570676563.0         317077452.0        3194180850.0         618832124.0
Wiener process for Thermostat # 5        1 F T T   8.8510719650084724E-01        3807338686.0         391196438.0        3168892585.0        2742717530.0        1249673525.0        1666809739.0        1597262096.0        3906379055.0        3312112953.0        1016013135.0        4099474108.0         275305423.0        1597262096.0        3906379055.0        3312112953.0        1016013135.0        4099474108.0         275305423.0
Wiener process for Thermostat # 6        1 F T T  -7.6131609651248622E-01        1604614773.0         782068043.0        3773618438.0        3512071579.0        3692745750.0        3635216024.0          97147054.0        3131372450.0         829345164.0        3691032523.0        3006063034.0        4259826321.0          97147054.0        3131372450.0         829345164.0        3691032523.0        3006063034.0        4259826321.0
Wiener process for Thermostat # 7        1 F T T   6.2050472969203185E-01         438846942.0         452041555.0        4267500716.0        1145919018.0        2154331535.0          81414737.0         796079799.0        2105258207.0         955365076.0        2923159030.0        4116632677.0        3067683584.0         796079799.0        2105258207.0         955365076.0        2923159030.0        4116632677.0        3067683584.0
Wiener process for Thermostat # 8        1 F T T  -9.6020093063011647E-01         395333145.0        3192108378.0         506138218.0         456708619.0        2212220417.0        3848534258.0        3281794178.0        2616230133.0        1457051261.0        2762791137.0        2480527362.0        2282316169.0        3281794178.0        2616230133.0        1457051261.0        2762791137.0        2480527362.0        2282316169.0
Wiener process for Thermostat # 9        1 F T T   1.4469070646750946E+00        1574698366.0        3455029834.0         261613599.0        3408657699.0         154258667.0         805807391.0        3777646647.0        1837464056.0        4204654757.0         664239048.0        4190510072.0        2959195122.0        3777646647.0        1837464056.0        4204654757.0         664239048.0        4190510072.0        2959195122.0
Wiener process for Thermostat # 10       1 F T T   1.0215684078889864E+00         520362263.0         710275463.0        1893065958.0        2986877911.0        2017870562.0         690603573.0        4215590817.0        3862461878.0        1087200967.0        1544910132.0         936383720.0        1611370123.0        4215590817.0        3862461878.0        1087200967.0        1544910132.0         936383720.0        1611370123.0
Wiener process for Thermostat # 11       1 F T T   6.1817197520798499E-02        2256411788.0        1902217406.0         450444439.0        4162037736.0        3768150237.0        4208219221.0        1683636369.0         362165168.0         814316280.0         869382050.0         980203903.0        2062101717.0        1683636369.0         362165168.0         814316280.0         869382050.0         980203903.0        2062101717.0
Wiener process for Thermostat # 12       1 F T T   1.5215419150133241E-01         569212690.0        3975787241.0        3457027436.0        1389900569.0         316631630.0        2723447215.0         272317999.0         166758548.0         310112982.0         201045826.0        1680231254.0         118290799.0         272317999.0         166758548.0         310112982.0         201045826.0        1680231254.0         118290799.0
Wiener process for Thermostat # 13       1 F T T   1.6654602070550704E+00        1790665472.0        4087609165.0        2806161796.0        1820921195.0        1216244716.0         485078448.0        2245755202.0        1652682525.0        2865544364.0         721509566.0         209733568.0         592362218.0        2245755202.0        1652682525.0        2865544364.0         721509566.0         209733568.0         592362218.0
Wiener process for Thermostat # 14       1 F T T   6.4940492971873653E-01        2408985986.0        2915444285.0        4112761883.0        1203322134.0         210703350.0        3859663584.0        3003961408.0        3529909391.0          14538032.0        3603919910.0         566682685.0        1235016484.0        3003961408.0        3529909391.0          14538032.0        3603919910.0         566682685.0        1235016484.0
Wiener process for Thermostat # 15       1 F T T   3.0482692300854775E-01        2960122867.0        1095120466.0        2832903949.0        1009231827.0        2830819467.0        2071363708.0         596094074.0        2279636413.0        3050913596.0        1739649456.0        2368706608.0        3058697049.0         596094074.0        2279636413.0        3050913596.0        1739649456.0        2368706608.0        3058697049.0
Wiener process for Thermostat # 16       1 F T T  -1.7021275027059729E-01         937830422.0        1025515178.0         814762387.0         819037909.0         100879083.0        4284249699.0        1437096527.0        2547142266.0        2541498983.0        2640839690.0        2160978219.0        2618657830.0        1437096527.0        2547142266.0        2541498983.0        2640839690.0        2160978219.0        2618657830.0
Wiener process for Thermostat # 17       1 F T T   4.4332101160987608E-01        3577922981.0        1969517018.0         663591257.0        1735610511.0        2346477599.0        3343464495.0        3224044943.0        1227141655.0        2220611050.0        1504589054.0        2829780440.0         108189859.0        3224044943.0        1227141655.0        2220611050.0        1504589054.0        2829780440.0         108189859.0
Wiener process for Thermostat # 18       1 F T T  -2.9208279028781980E-01        3017232714.0        2631335734.0        1861202556.0        1303275464.0        1007437460.0        1666572673.0         927434978.0        1593504038.0        2143021818.0        1749489845.0        1330187821.0        2371554242.0         927434978.0        1593504038.0        2143021818.0        1749489845.0        1330187821.0        2371554242.0
Wiener process for Thermostat # 19       1 F T T  -5.6318688026294483E-01        3627199504.0          98296935.0        1306305494.0        4255589618.0        3911745281.0         918719741.0        3446225690.0         835741554.0        2195834023.0        1297741021.0        3357053382.0         383824268.0        3446225690.0         835741554.0        2195834023.0        1297741021.0        3357053382.0         383824268.0
Wiener process for Thermostat # 20       1 F T T  -9.4777029799165927E-02        3945263384.0        1461433428.0        1820445684.0        4167472616.0        3735815982.0        4158019420.0        3984477137.0        1267973573.0        3770063761.0         216527865.0        1568537936.0        1200352663.0        3984477137.0        1267973573.0        3770063761.0         216527865.0        1568537936.0        1200352663.0
Wiener process for Thermostat # 21       1 F T T   8.9312460344546341E-01         186150976.0        3160011595.0        3878047995.0          79473850.0        3955332864.0        3013925315.0        2503334853.0        3179736892.0        2080184241.0        2881517721.0        3611607237.0        2639045213.0        2503334853.0        3179736892.0        2080184241.0        2881517721.0        3611607237.0        2639045213.0
Wiener process for Thermostat # 22       1 F T T  -9.2909308622954045E-01        3777789058.0         722538869.0        2191204441.0        3325398702.0        3846015713.0        2040526850.0        2784301963.0        3004110709.0        4065265451.0        2351994899.0        1824839263.0        1473060447.0        2784301963.0        3004110709.0        4065265451.0        2351994899.0        1824839263.0        1473060447.0
Wiener process for Thermostat # 23       1 F T T  -2.2442459116559781E+00        2829109350.0        1506532511.0         536595526.0         715926166.0        4041860681.0        1091159786.0        3645411182.0        1391027122.0        3995023402.0         536114258.0        1376034799.0        2391282907.0        3645411182.0        1391027122.0        3995023402.0         536114258.0        1376034799.0        2391282907.0
Wiener process for Thermostat # 24       1 F T T   8.1665700198937030E-01        4281247971.0        4292592034.0        3191513010.0         295080244.0        1250093845.0        1804122071.0        4205039797.0        2998067142.0        2737381050.0        2060484144.0          21123025.0         900610517.0        4205039797.0        2998067142.0        2737381050.0        2060484144.0          21123025.0         900610517.0
Wiener process for Thermostat # 25       1 F T T  -7.8619327873850409E-01        2405045245.0        1025735182.0        3732800454.0        1791177674.0        4106417346.0        3521598354.0        1708138263.0        1103344630.0        3131738563.0         354874525.0        1462105562.0        2799820805.0        1708138263.0        1103344630.0        3131738563.0         354874525.0        1462105562.0        2799820805.0
Wiener process for Thermostat # 26       1 F T T   1.7859786726334699E+00        2225187977.0        2926470707.0        2135747861.0        2821312839.0         596463588.0        2410431034.0        1762624356.0        3338520614.0        1869672149.0        2420033342.0        3823777008.0        4112813433.0        1762624356.0        3338520614.0        1869672149.0        2420033342.0        3823777008.0        4112813433.0
Wiener process for Thermostat # 27       1 F T T   2.7144617223639400E-01        3391178297.0         153384059.0        2038855444.0        4251511776.0        1869702328.0         985978944.0        1406960847.0        2689758640.0        2086764669.0        1479781266.0        4277003072.0        4173905453.0        1406960847.0        2689758640.0        2086764669.0        1479781266.0        4277003072.0        4173905453.0
Wiener process for Thermostat # 28       1 F T T  -5.6295418455401414E-01        3224634355.0        2331766212.0        2228069473.0        2857257881.0        1994980439.0        1379930176.0        3217706054.0        3907922111.0        3316415646.0         934936431.0        1155310743.0        1383590847.0        3217706054.0        3907922111.0        3316415646.0         934936431.0        1155310743.0        1383590847.0
Wiener process for Thermostat # 29       1 F T T   1.2165842675296517E+00        3967777624.0         872882117.0        1054777225.0        3020345885.0        1996034933.0         551020976.0        2996242832.0        2506376012.0        1182520337.0         938957435.0        3286002927.0        1946707306.0        2996242832.0        2506376012.0        1182520337.0         938957435.0        3286002927.0        1946707306.0
Wiener process for Thermostat # 30       1 F T T  -1.9810583553480752E+00        1998194589.0         160737653.0        3525329291.0        1449156725.0        2341053209.0        2558305393.0        3757057907.0        1334546224.0        1509001838.0         991499802.0        1502864996.0         921145139.0        3757057907.0        1334546224.0        1509001838.0         991499802.0        1502864996.0         921145139.0
Wiener process for Thermostat # 31       1 F T T  -8.3653584793497646E-02        1666831701.0          60133400.0        1875966415.0        1204258368.0        3184449801.0        3752107220.0        3728532268.0         988545039.0        1631700325.0        1143954198.0        2209269908.0        1591407377.0        3728532268.0         988545039.0        1631700325.0        1143954198.0        2209269908.0        1591407377.0
Wiener process for Thermostat # 32       1 F T T   1.2494389781577993E+00        1493850397.0        2828142308.0         511351153.0        3654333434.0        4231986317.0        3564319897.0        3294123071.0        1464634864.0        3721431761.0        2693241183.0        1754954480.0        3900039887.0        3294123071.0        1464634864.0        3721431761.0        2693241183.0        1754954480.0        3900039887.0
Wiener process for Thermostat # 33       1 F T T  -5.3327583996752215E-01        2155186218.0        3354268913.0         372822722.0         684008847.0        2342283352.0        1984774393.0         131824893.0        3188611738.0        1376082626.0        2419937722.0        2563475034.0        1251594162.0         131824893.0        3188611738.0        1376082626.0        2419937722.0        2563475034.0        1251594162.0
Wiener process for Thermostat # 34       1 F T T   9.0371299596746779E-01         632175842.0        3655348390.0        2916923504.0        3697003468.0        1118271068.0        2510643352.0        3770164700.0        4029076745.0        1104720217.0        3496143152.0         735265587.0        3273706940.0        3770164700.0        4029076745.0        1104720217.0        3496143152.0         735265587.0        3273706940.0
Wiener process for Thermostat # 35       1 F T T   1.1519567365452719E+00        2792743441.0        3056112576.0        2693639901.0        3360190242.0          65570076.0        1060083905.0        2131062045.0        2455732983.0         789218840.0        1151705419.0         286383816.0         924846932.0        2131062045.0        2455732983.0         789218840.0        1151705419.0         286383816.0         924846932.0
Wiener process for Thermostat # 36       1 F T T   9.4947090692782177E-01        1521732050.0        2434173615.0        3482946546.0        1879900964.0        4009735075.0          37675218.0        2053528341.0        4170407123.0        3515474899.0          98091789.0        1000335891.0        3854257602.0        2053528341.0        4170407123.0        3515474899.0          98091789.0        1000335891.0        3854257602.0
Wiener process for Thermostat # 37       1 F T T   1.1305148864185968E+00        1425974846.0        3058751675.0         852658673.0          22694597.0         234035286.0        3059862270.0        2469807084.0           9172128.0        3362394154.0        4021928081.0        2651348937.0        2296225074.0        2469807084.0           9172128.0        3362394154.0        4021928081.0        2651348937.0        2296225074.0
Wiener process for Thermostat # 38       1 F T T  -7.0457743471574241E-01        2073693973.0         178875387.0        3739374218.0        3442933985.0        4221931354.0         998827043.0         794136241.0        1326962976.0        1423309168.0         588827532.0        1370684418.0        1646244893.0         794136241.0        1326962976.0        1423309168.0         588827532.0        1370684418.0        1646244893.0
Wiener process for Thermostat # 39       1 F T T  -4.4999856566696067E-01        2096610457.0         515804564.0        3111182813.0        2067839191.0        3618281947.0        1519474451.0        2866999578.0        1918106148.0        3899143652.0        2905238681.0        3298551408.0         326591245.0        2866999578.0        1918106148.0        3899143652.0        2905238681.0        3298551408.0         326591245.0
Wiener process for Thermostat # 40       1 F T T  -2.2410182973632323E-01        1849535913.0        3646326280.0        3244393714.0        2174128213.0        1582635128.0        3170310952.0        3040096556.0        1206876890.0         780501254.0         597456198.0        1004013014.0        3962406934.0        3040096556.0        1206876890.0         780501254.0         597456198.0        1004013014.0        3962406934.0
Wiener process for Thermostat # 41       1 F T T  -1.1481862105448874E-01        1883504714.0        2583227888.0        1678799635.0        2413019534.0         512172412.0         215744354.0        3970659565.0        2743575038.0        4070166570.0         141329301.0        2711190398.0         148640829.0        3970659565.0        2743575038.0        4070166570.0         141329301.0        2711190398.0         148640829.0
Wiener process for Thermostat # 42       1 F T T  -5.9137918662112998E-01        1821461100.0         798682932.0        4229551345.0          89865982.0        3952118226.0        2290909792.0         216582539.0        3263278363.0        1880572884.0        3722908253.0         287018188.0         285207334.0         216582539.0        3263278363.0        1880572884.0        3722908253.0         287018188.0         285207334.0
         &END RNG_INIT
         &S
               6.5913178342727238E-02   -3.2726442000476294E-02   -4.7367195739053361E-02   -2.7447030252060304E-02 \
               1.2823046517705296E-02   -5.5532363156018755E-02    2.7670134339774395E-02    1.9388531900840545E-02    1.5680523622200715E-03 \
              -4.2931680662894434E-02   -3.8142324173708413E-03   -8.2091611390211726E-03   -3.2067113155819629E-02   -8.3554090485523230E-03 \
              -6.6195579538847957E-04    1.3614842302229931E-02   -1.8804815773433681E-02   -1.3626293380948498E-02   -3.9801694972830606E-02 \
               6.4374753690703496E-03    1.3722451488608938E-02    2.6120132176645518E-02    3.2396414083499608E-02   -2.9360207409630766E-02 \
              -5.5580845868425398E-02    4.4713451751046652E-04    1.7760962519407647E-02    3.0675373800742062E-02    2.1185346332335830E-02 \
               2.8864958318074552E-02   -3.3223891954282476E-03   -1.8816178869226905E-02   -1.1047921345897237E-02   -6.0010406516471364E-03 \
              -1.4733945510651384E-02   -1.1761433057734837E-03    2.6737509435983256E-02    6.1948905240901695E-03   -7.2781475211584935E-03 \
              -2.3173128338390848E-02    9.5240090055815126E-03    1.0065333779587515E-02    1.6964815063173024E-02   -2.5517546770916042E-04 \
               1.7246668380347170E-02    1.4370677044874366E-02   -3.4390438607765306E-02    3.5391807835437779E-02   -2.5475462433211412E-02 \
              -1.4790868077593437E-02    7.4758182680863365E-03   -3.0387792105481381E-02   -3.9057592711410891E-02    1.3739974192377082E-02 \
              -1.6322731052348206E-02    8.6555929999148594E-03   -2.9840047652561486E-02    3.6168706653410813E-02   -1.0598040212061753E-02 \
              -6.1807285420457797E-02   -2.8256719948129595E-02    7.5662006465628982E-03    3.1848590588570799E-02    5.7325043146467032E-02 \
              -5.7488844723324901E-03    2.3549326816998662E-02   -9.2049093648374890E-03   -1.8542479458043912E-02   -2.0649618565882613E-02 \
               1.1728971974541084E-02   -6.9547107184135858E-03    3.9816571376066284E-02    4.3565667280048376E-02   -6.7546163796168446E-03 \
              -1.2190805537589260E-02   -3.2820645811079685E-02   -1.4788511365573407E-02    2.5368648345641320E-03   -1.8913959691907529E-02 \
               6.8433224546117048E-03   -4.4896475887622474E-02    2.5890815941715519E-02   -1.3080103016119454E-02    5.4755380196034341E-02 \
               1.9079876969694348E-02    3.4763318953657432E-02    2.2756340288723188E-02    4.2046609377628670E-02    2.6528869887799188E-02 \
              -2.1563937501342133E-02   -1.7251727415881293E-02    4.1165532488332969E-02    2.2876293607596184E-02   -2.1535579032416957E-02 \
              -4.7921963246079682E-02   -9.0277018957816250E-03    1.3994751030188931E-02    3.2206178023211088E-02   -1.4088487790526750E-02 \
               5.0068831720060762E-02    5.8440716007301025E-02   -4.6864166634628404E-02   -2.5149359297902622E-02    6.5071944149228079E-03 \
               4.9966478102501950E-03   -2.1902312803491510E-02   -3.0481597737218990E-02    1.7545871615399999E-02   -4.5953370728821386E-02 \
               2.2126045534649426E-02   -9.8944910187221263E-03   -3.9476651627352213E-02   -2.7125826557225952E-02    2.3316643845231421E-02 \
               4.5992175519422675E-02   -3.3660357512868430E-02   -1.3777039975951217E-02    5.5928239899327610E-02   -2.1506935608959360E-02 \
               5.1224392468931804E-02   -3.6932811449961724E-02    1.0410953133966104E-02   -1.1189034235319953E-02    2.0403440726078189E-02 \
               5.0803471952106917E-02    1.0303166454532596E-02   -2.7719960940186864E-02   -1.9869071968548473E-02    1.5834128412613946E-02 \
              -5.9101832118194850E-02   -1.0833914861548300E-02   -6.1072873891132575E-03   -1.8317984392005777E-02    3.3524225230050109E-02 \
              -9.6609361967650766E-03   -1.9741473895882340E-02   -9.9773291269356062E-03    1.9020814820813456E-02   -4.4914872174451809E-02 \
              -6.0343831638616759E-03    3.7087002810787298E-03    4.3653325786444104E-02   -3.4349415362922627E-03    6.8284375903785874E-02 \
              -4.2387279430981015E-02    4.5529511985302005E-03   -6.0924442783611303E-02    3.7867091727296069E-02    4.5139355456323749E-02 \
               6.1595703713307831E-02   -4.0385755319101851E-02    2.4675378985639856E-02    5.6376818082236385E-03   -5.2053785217484702E-02 \
              -4.7898171330086038E-02    1.5518901560677029E-02   -9.0202538510999446E-03   -3.2204647377236059E-03   -2.0310493408841862E-02 \
              -2.6063023735331849E-02    1.9707501675433033E-03   -9.4232481973996023E-03    4.9870564892585310E-02    5.6148071048973567E-03 \
              -1.4126625954810573E-02    3.9563928690751022E-03    1.1560995283856944E-02    1.7263641421083557E-02   -7.4407541198604618E-03 \
              -7.1606003757224299E-02   -9.7462574001044952E-02   -1.0525292631110720E-02   -5.9645319703012971E-03    6.9422361912180727E-03 \
              -7.3549762381596474E-03   -6.3787922942911430E-03    9.3530425356741290E-03    1.3769781343559633E-03    2.0667285694428234E-02 \
               2.7668107457028548E-02   -4.9540654152246594E-02   -3.7489834876551054E-02   -1.5804083458411132E-02   -4.3466072362843056E-02 \
              -2.9772156007907072E-04   -3.0677254559425954E-02   -1.8668773389874244E-02   -1.1982946503657102E-02    7.9352003915324609E-03 \
              -2.4794409384722247E-04   -9.1817627890960086E-03    6.7011493179740863E-03   -2.5487279741691699E-02    5.2203132220952700E-02 \
              -3.0823917936268652E-02   -2.6141002694041997E-02    3.7689959420529723E-03    1.1514966211902591E-02    6.8723612555890407E-02 \
              -2.7425877265620742E-02   -2.5932417515919182E-02   -2.6750949890968261E-02    9.0181869952508514E-02   -5.1617860163104219E-02 \
               4.8178053249699950E-03   -1.7274592530230941E-02   -3.4229570191387490E-02    6.5836481379765149E-03    2.0084185916788171E-02 \
               4.0077862267496461E-02
         &END S
       &END GLE
     &END THERMOSTAT
     &AVERAGES  T
       &RESTART_AVERAGES
         ITIMES_START  1
         AVECPU     1.8459313621896449E+01
         AVEHUGONIOT     0.0000000000000000E+00
         AVETEMP_BARO     0.0000000000000000E+00
         AVEPOT    -2.8671433900714579E+01
         AVEKIN     1.9730179595868431E-02
         AVETEMP     2.9668050071177464E+02
         AVEKIN_QM     0.0000000000000000E+00
         AVETEMP_QM     0.0000000000000000E+00
         AVEVOL     6.7483345830896606E+03
         AVECELL_A     1.8897261328856278E+01
         AVECELL_B     1.8897261328856278E+01
         AVECELL_C     1.8897261328856278E+01
         AVEALPHA     9.0000000000000000E+01
         AVEBETA     9.0000000000000000E+01
         AVEGAMMA     9.0000000000000000E+01
         AVE_ECONS     1.5632245933216595E+00
         AVE_PRESS    -5.1432691059037188E+00
         AVE_PXX     1.2120155111045770E+01
       &END RESTART_AVERAGES
     &END AVERAGES
   &END MD
   &PRINT
     &TRAJECTORY  MEDIUM
       &EACH
         MD  1
       &END EACH
     &END TRAJECTORY
     &FORCES  SILENT
       &EACH
         MD  1
       &END EACH
     &END FORCES
     &RESTART  SILENT
       BACKUP_COPIES  3
       &EACH
         MD  10000
       &END EACH
     &END RESTART
   &END PRINT
 &END MOTION
 &FORCE_EVAL
   METHOD  QS
   STRESS_TENSOR  ANALYTICAL
   &DFT
     BASIS_SET_FILE_NAME HFX_BASIS
     POTENTIAL_FILE_NAME GTH_POTENTIALS
     UKS  T
     PLUS_U_METHOD  MULLIKEN
     &SCF
       MAX_SCF  50
       EPS_SCF     9.9999999999999995E-07
       SCF_GUESS  RESTART
       &OT  T
         MINIMIZER  CG
         PRECONDITIONER  FULL_SINGLE_INVERSE
         ENERGY_GAP     1.0000000000000001E-01
       &END OT
       &OUTER_SCF  T
         EPS_SCF     9.9999999999999995E-07
         MAX_SCF  15
       &END OUTER_SCF
     &END SCF
     &QS
       EPS_DEFAULT     1.0000000000000000E-13
     &END QS
     &MGRID
       NGRIDS  5
       CUTOFF     8.0000000000000000E+02
       REL_CUTOFF     6.0000000000000000E+01
     &END MGRID
     &XC
       DENSITY_CUTOFF     1.0000000000000000E-10
       GRADIENT_CUTOFF     1.0000000000000000E-10
       TAU_CUTOFF     1.0000000000000000E-10