 # Version information for this restart file 
 # current date 2023-07-14 04:15:34.061
 # current working dir /scratch365/omendibl/Phase_2/NNFFs/butane_3/AIMD_300K_20ps
 # Program compiled at                              Thu Sep 15 06:09:12 EDT 2022
 # Program compiled on                                         epycfe.crc.nd.edu
 # Program compiled for                                                    local
 # Source code revision number                                       git:bd915bf
 &GLOBAL
   PRINT_LEVEL  MEDIUM
   PROJECT_NAME Butane_aimd_test
   RUN_TYPE  MD
 &END GLOBAL
 &MOTION
   &MD
     ENSEMBLE  NVT
     STEPS  40000
     TIMESTEP     4.9999999999999994E-01
     STEP_START_VAL  40000
     TIME_START_VAL     1.9999999999996118E+04
     ECONS_START_VAL    -2.8655824355317748E+01
     TEMPERATURE     3.0000000000000000E+02
     &THERMOSTAT
       TYPE  GLE
       REGION  MASSIVE
       &GLE
         NDIM  5
         A_SCALE     1.0000000000000000E+00
         A_LIST     1.8595758612559999E+02    2.7263853498399998E-01    1.1526100454610001E+01   -3.6414578262600003E+01 \
             2.3173375816020001E+02
         A_LIST    -2.7809524712060002E-01    8.5951591808710006E-05    7.2189048017650004E-01   -1.9844539343859999E-01 \
             4.2409257583420001E-01
         A_LIST    -1.4825808131210000E+01   -7.2189048017650004E-01    1.3590902121280000E+00    5.1498896280349999E+00 \
            -9.9949268450990001E+00
         A_LIST    -1.0372189126880000E+01    1.9844539343859999E-01   -5.1498896280349999E+00    2.6661910891169999E+01 \
             1.1507715495310000E+01
         A_LIST     2.1801346360420001E+02   -4.2409257583420001E-01    9.9949268450990001E+00   -1.1507715495310000E+01 \
             3.0958394565589998E+02
         &THERMOSTAT_ENERGY
               6.5380154827842773E-03
               9.1156452395899316E-03
               9.2592291340872507E-03
              -5.3188705594681827E-02
               3.0133759527469745E-02
               1.4968145336132874E-02
               5.4357862825308578E-02
              -1.9859333539500924E-03
              -2.4897145598335606E-02
              -5.7449599384598385E-03
               2.8798946216399182E-02
              -3.6920113784331465E-02
               1.2516854591735721E-04
              -8.5996705051671722E-03
               2.6582243856281549E-04
               3.9179262214137631E-02
              -7.7933718449621769E-02
               2.4434642104258688E-02
              -3.6033373440180677E-02
              -1.3041696610223235E-03
               3.4240516453982683E-02
              -9.9832141201473702E-03
               1.1929279197524255E-02
               1.8469155916451430E-02
               2.3523937817217212E-02
               2.5389802061224220E-02
              -3.9954953897703177E-02
              -4.5092051524485678E-02
              -4.4085862184383193E-02
               3.8487715926134279E-02
               1.8677658368582272E-02
              -3.7168330133755721E-02
               5.7110982586090112E-02
              -3.1056688377779095E-02
              -4.3895091516596298E-02
               8.6861768620880436E-03
               3.4132005620327928E-02
              -1.3592138921568898E-02
               3.5806524440186512E-02
               4.6926798392341517E-03
               3.0316787642982856E-02
              -4.4078677611089551E-02
         &END THERMOSTAT_ENERGY
         &RNG_INIT
Wiener process for Thermostat # 1        1 F T T   1.9901702167607012E+00        2525561650.0        1351852628.0        1583024714.0         418351777.0        2706988269.0        2361922667.0             12345.0             12345.0             12345.0             12345.0             12345.0             12345.0             12345.0             12345.0             12345.0             12345.0             12345.0             12345.0
Wiener process for Thermostat # 2        1 F T T   2.0028772011464948E+00        2399110660.0        1535829241.0        1372829064.0        3747295222.0        3144848657.0         803384982.0        3692455944.0        1366884236.0        2968912127.0         335948734.0        4161675175.0         475798818.0        3692455944.0        1366884236.0        2968912127.0         335948734.0        4161675175.0         475798818.0
Wiener process for Thermostat # 3        1 F T T  -1.7084372790088889E+00        1372459707.0        1165182282.0        1565106241.0        1855068270.0        4140064765.0         503436398.0        1015873554.0        1310354410.0        2249465273.0         994084013.0        2912484720.0        3876682925.0        1015873554.0        1310354410.0        2249465273.0         994084013.0        2912484720.0        3876682925.0
Wiener process for Thermostat # 4        1 F T T   6.2240085847430116E-01         210069308.0        4083133850.0        2001731791.0        1741093478.0         803668399.0        2981367046.0        2338701263.0        1119171942.0        2570676563.0         317077452.0        3194180850.0         618832124.0        2338701263.0        1119171942.0        2570676563.0         317077452.0        3194180850.0         618832124.0
Wiener process for Thermostat # 5        1 F T T  -2.2480585277622365E+00        2282417507.0         677052747.0         161298335.0        3137674054.0        3312199330.0        2049813569.0        1597262096.0        3906379055.0        3312112953.0        1016013135.0        4099474108.0         275305423.0        1597262096.0        3906379055.0        3312112953.0        1016013135.0        4099474108.0         275305423.0
Wiener process for Thermostat # 6        1 F T T   1.1238691053921893E-01         146400615.0         799264822.0         162643730.0        2670246115.0        2911940881.0        2152171860.0          97147054.0        3131372450.0         829345164.0        3691032523.0        3006063034.0        4259826321.0          97147054.0        3131372450.0         829345164.0        3691032523.0        3006063034.0        4259826321.0
Wiener process for Thermostat # 7        1 F T T  -9.3335555547790369E-02        1866283634.0        3752353297.0        3022324332.0        2764240507.0        1798881160.0        1501935441.0         796079799.0        2105258207.0         955365076.0        2923159030.0        4116632677.0        3067683584.0         796079799.0        2105258207.0         955365076.0        2923159030.0        4116632677.0        3067683584.0
Wiener process for Thermostat # 8        1 F T T  -2.6748803540008304E-01        4241446983.0        2352735654.0        2473422521.0         678842875.0        2313422568.0        3463610905.0        3281794178.0        2616230133.0        1457051261.0        2762791137.0        2480527362.0        2282316169.0        3281794178.0        2616230133.0        1457051261.0        2762791137.0        2480527362.0        2282316169.0
Wiener process for Thermostat # 9        1 F T T  -5.0819767795666360E-01        2443932428.0         749126279.0         929837103.0        3907014730.0        3559385907.0        3540853600.0        3777646647.0        1837464056.0        4204654757.0         664239048.0        4190510072.0        2959195122.0        3777646647.0        1837464056.0        4204654757.0         664239048.0        4190510072.0        2959195122.0
Wiener process for Thermostat # 10       1 F T T   2.0581382124030906E-01        2222588818.0         222338780.0         237027336.0        3458591641.0        2189195043.0        1567340395.0        4215590817.0        3862461878.0        1087200967.0        1544910132.0         936383720.0        1611370123.0        4215590817.0        3862461878.0        1087200967.0        1544910132.0         936383720.0        1611370123.0
Wiener process for Thermostat # 11       1 F T T  -4.1147841999790352E-01        2674215342.0        1703644277.0        3686117032.0        3825286245.0         148254153.0        1072113069.0        1683636369.0         362165168.0         814316280.0         869382050.0         980203903.0        2062101717.0        1683636369.0         362165168.0         814316280.0         869382050.0         980203903.0        2062101717.0
Wiener process for Thermostat # 12       1 F T T   2.5812814347834806E-01        2185622225.0         920296921.0        1931915741.0        1339369751.0         993114578.0        2244120334.0         272317999.0         166758548.0         310112982.0         201045826.0        1680231254.0         118290799.0         272317999.0         166758548.0         310112982.0         201045826.0        1680231254.0         118290799.0
Wiener process for Thermostat # 13       1 F T T  -2.3334924317890357E-01        1398917073.0        4159657259.0        2307740032.0        3150195912.0        2298189347.0         729820015.0        2245755202.0        1652682525.0        2865544364.0         721509566.0         209733568.0         592362218.0        2245755202.0        1652682525.0        2865544364.0         721509566.0         209733568.0         592362218.0
Wiener process for Thermostat # 14       1 F T T  -2.9848046848270546E+00        3709823277.0        2650971554.0         434334362.0        3914302806.0         706953070.0        2996059971.0        3003961408.0        3529909391.0          14538032.0        3603919910.0         566682685.0        1235016484.0        3003961408.0        3529909391.0          14538032.0        3603919910.0         566682685.0        1235016484.0
Wiener process for Thermostat # 15       1 F T T   9.7540745930122463E-01         997076618.0         155146399.0        3158381253.0        4252015761.0        1547120224.0        4102971011.0         596094074.0        2279636413.0        3050913596.0        1739649456.0        2368706608.0        3058697049.0         596094074.0        2279636413.0        3050913596.0        1739649456.0        2368706608.0        3058697049.0
Wiener process for Thermostat # 16       1 F T T   2.0262692601712318E-01         523451266.0        1282002503.0        2392316274.0        2109883734.0        3081834700.0        1192797381.0        1437096527.0        2547142266.0        2541498983.0        2640839690.0        2160978219.0        2618657830.0        1437096527.0        2547142266.0        2541498983.0        2640839690.0        2160978219.0        2618657830.0
Wiener process for Thermostat # 17       1 F T T  -7.1522644156870596E-01        3033947466.0        3033847992.0        1566542185.0        2627073345.0        2529323921.0        2405147428.0        3224044943.0        1227141655.0        2220611050.0        1504589054.0        2829780440.0         108189859.0        3224044943.0        1227141655.0        2220611050.0        1504589054.0        2829780440.0         108189859.0
Wiener process for Thermostat # 18       1 F T T  -1.8628913925351722E+00        4115928934.0         622873596.0        4281163388.0        1818029300.0        3207193543.0        3909988191.0         927434978.0        1593504038.0        2143021818.0        1749489845.0        1330187821.0        2371554242.0         927434978.0        1593504038.0        2143021818.0        1749489845.0        1330187821.0        2371554242.0
Wiener process for Thermostat # 19       1 F T T   1.4792948258755363E+00         417140839.0        1532519914.0         546629241.0         880815371.0        2726082142.0        1027006044.0        3446225690.0         835741554.0        2195834023.0        1297741021.0        3357053382.0         383824268.0        3446225690.0         835741554.0        2195834023.0        1297741021.0        3357053382.0         383824268.0
Wiener process for Thermostat # 20       1 F T T  -2.5106235596176874E-01        1774894822.0         229548761.0        1134471501.0        3246934070.0        3348423374.0        3164041821.0        3984477137.0        1267973573.0        3770063761.0         216527865.0        1568537936.0        1200352663.0        3984477137.0        1267973573.0        3770063761.0         216527865.0        1568537936.0        1200352663.0
Wiener process for Thermostat # 21       1 F T T  -6.9284224909169789E-01        1974028088.0         137511023.0        3051054951.0         173828580.0        2667819421.0        1599059299.0        2503334853.0        3179736892.0        2080184241.0        2881517721.0        3611607237.0        2639045213.0        2503334853.0        3179736892.0        2080184241.0        2881517721.0        3611607237.0        2639045213.0
Wiener process for Thermostat # 22       1 F T T  -5.9680284311304854E-01        2846519977.0          92208154.0        2832874136.0        2399940635.0        2756510289.0          22402128.0        2784301963.0        3004110709.0        4065265451.0        2351994899.0        1824839263.0        1473060447.0        2784301963.0        3004110709.0        4065265451.0        2351994899.0        1824839263.0        1473060447.0
Wiener process for Thermostat # 23       1 F T T  -1.1713123596459867E+00        1584401143.0         446448881.0         322074191.0        1401831162.0        3961607184.0         577299082.0        3645411182.0        1391027122.0        3995023402.0         536114258.0        1376034799.0        2391282907.0        3645411182.0        1391027122.0        3995023402.0         536114258.0        1376034799.0        2391282907.0
Wiener process for Thermostat # 24       1 F T T  -1.4605350044839587E+00        2334456054.0        1833907340.0        2892117263.0        3357454260.0         888382507.0        1987791293.0        4205039797.0        2998067142.0        2737381050.0        2060484144.0          21123025.0         900610517.0        4205039797.0        2998067142.0        2737381050.0        2060484144.0          21123025.0         900610517.0
Wiener process for Thermostat # 25       1 F T T  -4.7017346065122569E-02         268897729.0        2512580371.0        4219161345.0        2217640588.0         475132662.0        2355475528.0        1708138263.0        1103344630.0        3131738563.0         354874525.0        1462105562.0        2799820805.0        1708138263.0        1103344630.0        3131738563.0         354874525.0        1462105562.0        2799820805.0
Wiener process for Thermostat # 26       1 F T T   2.0527592446306699E+00        3842585548.0        3875831205.0        4053888046.0          13298834.0        1023092534.0        3897004544.0        1762624356.0        3338520614.0        1869672149.0        2420033342.0        3823777008.0        4112813433.0        1762624356.0        3338520614.0        1869672149.0        2420033342.0        3823777008.0        4112813433.0
Wiener process for Thermostat # 27       1 F T T   4.2698773761093198E-02        2881633539.0         478040063.0        1393765135.0        3127444181.0        2529716720.0        2496110170.0        1406960847.0        2689758640.0        2086764669.0        1479781266.0        4277003072.0        4173905453.0        1406960847.0        2689758640.0        2086764669.0        1479781266.0        4277003072.0        4173905453.0
Wiener process for Thermostat # 28       1 F T T  -6.8637154818755841E-01        1348141643.0        2366527948.0         107061074.0        2303493427.0         549609822.0        2174952650.0        3217706054.0        3907922111.0        3316415646.0         934936431.0        1155310743.0        1383590847.0        3217706054.0        3907922111.0        3316415646.0         934936431.0        1155310743.0        1383590847.0
Wiener process for Thermostat # 29       1 F T T  -2.2204524077676315E+00        3223620698.0         393521818.0        3029171245.0        3671570669.0        3162842979.0        3632598183.0        2996242832.0        2506376012.0        1182520337.0         938957435.0        3286002927.0        1946707306.0        2996242832.0        2506376012.0        1182520337.0         938957435.0        3286002927.0        1946707306.0
Wiener process for Thermostat # 30       1 F T T  -1.0285734898869054E+00        1641867166.0        2018516988.0        2805962530.0        2175978587.0        1358132094.0          56926270.0        3757057907.0        1334546224.0        1509001838.0         991499802.0        1502864996.0         921145139.0        3757057907.0        1334546224.0        1509001838.0         991499802.0        1502864996.0         921145139.0
Wiener process for Thermostat # 31       1 F T T   1.0445319533107260E+00        3257188492.0        3608511641.0         762109408.0        1786330758.0         635254659.0        4215726909.0        3728532268.0         988545039.0        1631700325.0        1143954198.0        2209269908.0        1591407377.0        3728532268.0         988545039.0        1631700325.0        1143954198.0        2209269908.0        1591407377.0
Wiener process for Thermostat # 32       1 F T T  -1.7352507531038677E+00        3688788155.0         568790356.0        2050807763.0        2665594934.0        2982752858.0        2240150554.0        3294123071.0        1464634864.0        3721431761.0        2693241183.0        1754954480.0        3900039887.0        3294123071.0        1464634864.0        3721431761.0        2693241183.0        1754954480.0        3900039887.0
Wiener process for Thermostat # 33       1 F T T  -1.8541699678700657E-01        1161183112.0        4288482728.0        2757708875.0        3861237494.0        2577353113.0        2615261728.0         131824893.0        3188611738.0        1376082626.0        2419937722.0        2563475034.0        1251594162.0         131824893.0        3188611738.0        1376082626.0        2419937722.0        2563475034.0        1251594162.0
Wiener process for Thermostat # 34       1 F T T   5.4058544394710228E-01         919637121.0        1854383183.0        2420059197.0        4240139659.0        2006939498.0         833862590.0        3770164700.0        4029076745.0        1104720217.0        3496143152.0         735265587.0        3273706940.0        3770164700.0        4029076745.0        1104720217.0        3496143152.0         735265587.0        3273706940.0
Wiener process for Thermostat # 35       1 F T T   1.6825777287583921E-01        1348230116.0        1266158968.0        3984470817.0        4259844903.0        2489069875.0        2428254636.0        2131062045.0        2455732983.0         789218840.0        1151705419.0         286383816.0         924846932.0        2131062045.0        2455732983.0         789218840.0        1151705419.0         286383816.0         924846932.0
Wiener process for Thermostat # 36       1 F T T   1.8154014552468254E+00        2134085880.0        4026834922.0        1282817954.0        1610488035.0        1537944784.0        1516481440.0        2053528341.0        4170407123.0        3515474899.0          98091789.0        1000335891.0        3854257602.0        2053528341.0        4170407123.0        3515474899.0          98091789.0        1000335891.0        3854257602.0
Wiener process for Thermostat # 37       1 F T T  -8.6784977779010108E-01        1177006225.0        2867595527.0         782080857.0         659803709.0        1176886282.0        2194073274.0        2469807084.0           9172128.0        3362394154.0        4021928081.0        2651348937.0        2296225074.0        2469807084.0           9172128.0        3362394154.0        4021928081.0        2651348937.0        2296225074.0
Wiener process for Thermostat # 38       1 F T T   6.1873162909662560E-01        3690545186.0        2483508994.0        1418812250.0         658847960.0        3823714343.0        1326531729.0         794136241.0        1326962976.0        1423309168.0         588827532.0        1370684418.0        1646244893.0         794136241.0        1326962976.0        1423309168.0         588827532.0        1370684418.0        1646244893.0
Wiener process for Thermostat # 39       1 F T T   1.5048296109143172E-01        3507083834.0         496586688.0        3355433678.0        1915034105.0        2228167332.0         607495371.0        2866999578.0        1918106148.0        3899143652.0        2905238681.0        3298551408.0         326591245.0        2866999578.0        1918106148.0        3899143652.0        2905238681.0        3298551408.0         326591245.0
Wiener process for Thermostat # 40       1 F T T  -5.0992165013041990E-01         252463453.0        4279433064.0        3208031671.0         287337692.0        3717745136.0        4084895234.0        3040096556.0        1206876890.0         780501254.0         597456198.0        1004013014.0        3962406934.0        3040096556.0        1206876890.0         780501254.0         597456198.0        1004013014.0        3962406934.0
Wiener process for Thermostat # 41       1 F T T   5.5396747131336965E-01        4265129318.0        3015684407.0        1075509489.0         391008727.0        4279665507.0        2152156954.0        3970659565.0        2743575038.0        4070166570.0         141329301.0        2711190398.0         148640829.0        3970659565.0        2743575038.0        4070166570.0         141329301.0        2711190398.0         148640829.0
Wiener process for Thermostat # 42       1 F T T   3.4266744659771486E-01        3341825430.0         355548347.0        1252200689.0         866176017.0        1621199008.0        1312398749.0         216582539.0        3263278363.0        1880572884.0        3722908253.0         287018188.0         285207334.0         216582539.0        3263278363.0        1880572884.0        3722908253.0         287018188.0         285207334.0
         &END RNG_INIT
         &S
               2.1844570535869905E-02    2.8324939100839431E-02    2.5438327715189904E-02    3.7606202709724666E-02 \
               1.6582156416589795E-02   -6.0018157664247410E-02    1.1100828622703961E-02    3.3414679740424190E-02    5.5882513139704361E-02 \
               1.7050489613415362E-02   -1.0551458572352405E-02    1.0487720862803467E-02   -3.7111387299720237E-02   -5.0409941988198035E-04 \
               2.5365443573163136E-02   -2.5751385939742875E-02   -4.8726018119059885E-03   -2.7512341331747524E-02    5.5154274354046226E-02 \
               3.6281815756769482E-02    9.4391436806982656E-03    3.6373577033205297E-02    1.3744566510096945E-02   -1.3755005454591802E-02 \
              -9.0701238727257123E-03   -1.4465614177044036E-02   -3.0393332100973778E-03    6.4418375592915703E-02    2.8183944841813094E-02 \
              -2.3987127138569653E-02    1.1085896661968737E-04   -3.7818706165059543E-02   -3.9053907733151740E-02    3.5918659142129147E-02 \
              -3.2579948263343261E-02   -3.9187889883072285E-02   -7.1601227517808516E-03   -5.8259416778415209E-02    3.0438031392484265E-02 \
               2.9541148512842652E-03   -2.2386694264916039E-02    1.4870032478714771E-02    1.5451076139898094E-02   -9.0697552588126125E-03 \
               4.4470939367609449E-04   -2.0922745417599003E-03   -8.3460354991491542E-03    1.0502476854518996E-02   -3.4844355320737329E-03 \
              -2.0836799453169630E-02   -1.7205005020036551E-02    6.3382715382201887E-02   -1.1909658142255171E-03    3.4807660527835793E-02 \
               9.8272968934426490E-03   -1.4180259531785753E-02   -4.1529901106775995E-03   -4.9032391083938393E-03    2.0543535106424499E-02 \
              -1.4848111293809406E-02    1.4672726351550081E-02   -3.0587997144519166E-02    2.7408129269928350E-02   -6.0112359553057930E-03 \
              -3.7125229267449978E-03    3.2677955984339847E-02   -8.4098046659304204E-02    5.9899872674514409E-02    1.3367818816280373E-02 \
               3.0920594676653750E-02   -3.2619497063117162E-02   -1.3465274140395566E-02    1.4688330040157599E-02   -4.1927288830457335E-02 \
               3.6375910025211580E-02    3.3030841235941029E-02   -4.4002134253489670E-03   -3.1417729780949229E-03   -3.4436666383412265E-02 \
              -3.9797313365441921E-02    3.6817045840448190E-02   -6.0264608195856717E-02    2.6515085389743370E-02   -3.9750341016416550E-02 \
               4.1966636806998192E-02    2.7586398558849836E-02    8.0241727266794731E-03   -2.1675992665242491E-02   -6.6765628182464481E-02 \
              -2.3100378536529399E-02    5.0992727113580577E-03   -2.9960853480963379E-02    4.3024987785646236E-02   -6.6630740968617555E-02 \
              -4.6228337063540959E-02   -2.1485468799389947E-02   -4.8626781156850978E-02   -4.1358390729765750E-02   -3.5166435911676001E-02 \
              -5.7019443225077661E-02    2.7279618260837697E-02   -5.9369441265262501E-02    1.8734475005485193E-02   -4.4628820747551071E-03 \
               3.8146357802115075E-02    7.8214089424906100E-03    2.0505679906226331E-03    2.2310929446311998E-02    6.7373514177744651E-03 \
              -4.9912012419422273E-02   -8.7919106597330703E-03    1.1732640518112106E-02    6.5043506779669559E-03   -1.7064374641836546E-02 \
               4.1996299540948467E-02    1.7381913097912677E-02    1.1187910275030091E-02   -4.1453882680783746E-02   -3.6444200290805404E-02 \
               7.0025119109453238E-04    3.9608958940117504E-02   -1.2917164176017001E-02    2.6008181302097963E-02   -3.0180254768616518E-02 \
               1.0386326505312460E-02    9.8189600488262797E-03    6.3053983476680170E-03   -3.2400969443660742E-02    4.4432026703630507E-02 \
               6.1993710518162701E-02    3.7750656524697931E-02   -4.9635274415268271E-02   -1.7477815414014136E-02   -1.5633730483198133E-02 \
               1.0323248212855712E-02   -2.5013357726975001E-02   -4.2384136920075874E-03   -4.3014075208144965E-02    2.0076065177594946E-02 \
              -1.8050821386340524E-02   -2.6929719129807513E-02    1.6799121226478551E-02   -1.4124323194126907E-02   -4.0146189979336208E-02 \
              -7.6439357868717771E-03    1.2353402547841138E-02    6.2462909625628310E-02   -2.5759128308227169E-02   -1.4538654293734240E-02 \
               1.6430304391464659E-02   -2.8292145037564987E-02    8.0230454815429772E-02    2.8085825218643789E-02    3.1385358396122297E-02 \
              -3.5987715735146503E-02   -6.2360074476419478E-03   -1.6052539975641014E-02   -1.6956329336303859E-02   -8.5212548576118225E-03 \
               4.5808204250176170E-02   -1.3245967463402593E-02   -7.7295719278759056E-03    2.3070386863826751E-02    7.8707798490782813E-03 \
               2.2637982035560278E-02   -5.3651280025907100E-03    1.8105084148116854E-03   -6.5281055341065066E-03   -5.0866518989040807E-02 \
               9.8752541815759348E-03   -2.9581528771730495E-02    2.7394232514164830E-02    3.6841477412602179E-02    1.7432196419898113E-02 \
              -3.9237778278033930E-02    5.5931364640528371E-02    3.1617903874986024E-02   -2.2853139321796070E-02    8.3652700872188981E-03 \
               4.9377715216797097E-02   -5.2638779409167676E-02    2.1577912824504365E-02    1.8712219018024490E-02    1.8158615494912045E-03 \
              -4.1452827948372954E-02    2.9973925363115796E-02   -7.6282833036291650E-04    3.2367081566837853E-02   -2.6921555052753579E-02 \
               5.7501905522160945E-03    6.0910981130359552E-04    1.5555886913684985E-02    3.7468100182316395E-02   -9.0303000694928141E-03 \
               5.9603872358605856E-03    7.4063221278308162E-03   -1.8304706892052720E-02    2.5090140657741698E-02   -4.6079763965310317E-03 \
               8.5750531069991899E-03    6.9119231290885926E-03    1.2701821231125350E-02    1.6465588439830061E-02   -5.8253344636257767E-02 \
               1.3326981231091222E-02    5.7078305202330204E-03   -3.4713539550473682E-02   -1.7938362940349384E-03    2.9193855263497483E-04 \
              -4.2086596773609160E-02
         &END S
       &END GLE
     &END THERMOSTAT
     &AVERAGES  T
       &RESTART_AVERAGES
         ITIMES_START  1
         AVECPU     1.7750775078237893E+01
         AVEHUGONIOT     0.0000000000000000E+00
         AVETEMP_BARO     0.0000000000000000E+00
         AVEPOT    -2.8671305613602435E+01
         AVEKIN     1.9853061855703125E-02
         AVETEMP     2.9852826748952748E+02
         AVEKIN_QM     0.0000000000000000E+00
         AVETEMP_QM     0.0000000000000000E+00
         AVEVOL     6.7483345830894141E+03
         AVECELL_A     1.8897261328855802E+01
         AVECELL_B     1.8897261328855802E+01
         AVECELL_C     1.8897261328855802E+01
         AVEALPHA     9.0000000000000000E+01
         AVEBETA     9.0000000000000000E+01
         AVEGAMMA     9.0000000000000000E+01
         AVE_ECONS     3.1947016697686128E+00
         AVE_PRESS     1.2156817090714572E+01
         AVE_PXX     1.6740969339422975E+01
       &END RESTART_AVERAGES
     &END AVERAGES
   &END MD
   &PRINT
     &TRAJECTORY  MEDIUM
       &EACH
         MD  1
       &END EACH
     &END TRAJECTORY
     &FORCES  SILENT
       &EACH
         MD  1
       &END EACH
     &END FORCES
     &RESTART  SILENT
       BACKUP_COPIES  3
       &EACH
         MD  10000
       &END EACH
     &END RESTART
   &END PRINT
 &END MOTION
 &FORCE_EVAL
   METHOD  QS
   STRESS_TENSOR  ANALYTICAL
   &DFT
     BASIS_SET_FILE_NAME HFX_BASIS
     POTENTIAL_FILE_NAME GTH_POTENTIALS
     UKS  T
     PLUS_U_METHOD  MULLIKEN
     &SCF
       MAX_SCF  50
       EPS_SCF     9.9999999999999995E-07
       SCF_GUESS  RESTART
       &OT  T
         MINIMIZER  CG
         PRECONDITIONER  FULL_SINGLE_INVERSE
         ENERGY_GAP     1.0000000000000001E-01
       &END OT
       &OUTER_SCF  T
         EPS_SCF     9.9999999999999995E-07
         MAX_SCF  15
       &END OUTER_SCF
     &END SCF
     &QS
       EPS_DEFAULT     1.0000000000000000E-13
     &END QS
     &MGRID
       NGRIDS  5
       CUTOFF     8.0000000000000000E+02
       REL_CUTOFF     6.0000000000000000E+01
     &END MGRID
     &XC
       DENSITY_CUTOFF     1.0000000000000000E-10
       GRADIENT_CUTOFF     1.0000000000000000E-10
       TAU_CUTOFF     1.0000000000000000E-10