 # Version information for this restart file 
 # current date 2023-07-08 03:32:59.696
 # current working dir /scratch365/omendibl/Phase_2/NNFFs/butane_3/AIMD_300K_20ps
 # Program compiled at                              Thu Sep 15 06:09:12 EDT 2022
 # Program compiled on                                         epycfe.crc.nd.edu
 # Program compiled for                                                    local
 # Source code revision number                                       git:bd915bf
 &GLOBAL
   PRINT_LEVEL  MEDIUM
   PROJECT_NAME Butane_aimd_test
   RUN_TYPE  MD
 &END GLOBAL
 &MOTION
   &MD
     ENSEMBLE  NVT
     STEPS  40000
     TIMESTEP     4.9999999999999994E-01
     STEP_START_VAL  10000
     TIME_START_VAL     4.9999999999994579E+03
     ECONS_START_VAL    -2.8655824355317748E+01
     TEMPERATURE     3.0000000000000000E+02
     &THERMOSTAT
       TYPE  GLE
       REGION  MASSIVE
       &GLE
         NDIM  5
         A_SCALE     1.0000000000000000E+00
         A_LIST     1.8595758612559999E+02    2.7263853498399998E-01    1.1526100454610001E+01   -3.6414578262600003E+01 \
             2.3173375816020001E+02
         A_LIST    -2.7809524712060002E-01    8.5951591808710006E-05    7.2189048017650004E-01   -1.9844539343859999E-01 \
             4.2409257583420001E-01
         A_LIST    -1.4825808131210000E+01   -7.2189048017650004E-01    1.3590902121280000E+00    5.1498896280349999E+00 \
            -9.9949268450990001E+00
         A_LIST    -1.0372189126880000E+01    1.9844539343859999E-01   -5.1498896280349999E+00    2.6661910891169999E+01 \
             1.1507715495310000E+01
         A_LIST     2.1801346360420001E+02   -4.2409257583420001E-01    9.9949268450990001E+00   -1.1507715495310000E+01 \
             3.0958394565589998E+02
         &THERMOSTAT_ENERGY
               2.0871880881835409E-02
              -4.6378569890143375E-03
               1.0115651256090017E-02
              -1.7801684315937826E-02
              -9.7172909308039877E-03
               2.0670536254998761E-02
               1.9642234344970637E-02
              -1.1107911771332555E-02
               2.2077663175885777E-03
              -1.5014300126281346E-02
               3.8382827757778150E-03
               3.2506745260635296E-04
              -1.4317553497365207E-02
              -2.5239636439352175E-02
              -9.9058354430238502E-03
               3.9278620870820485E-02
              -4.7019514125803651E-02
               1.6556347011524915E-02
              -1.0927044269934370E-02
               2.1540603580682813E-02
              -5.0818042254026342E-04
               3.9396663455451217E-03
              -4.5978191664717821E-03
               7.1514460281963971E-04
               1.7882112666325767E-02
               1.7733569989780037E-02
              -3.5688369854739159E-02
              -2.7601416996608692E-02
               4.9759604119050714E-03
               1.6717662241727419E-03
               2.2562549706049102E-02
              -6.4013066963266143E-03
               4.6615310922985412E-03
               4.6786302057978532E-03
              -1.2292022944219888E-02
              -2.9387978525536606E-02
               1.0358248298164964E-02
               1.5451945260509885E-03
               1.8846435026786248E-02
              -6.0502302135290531E-03
               8.3168744272007315E-03
               1.5094017744567267E-02
         &END THERMOSTAT_ENERGY
         &RNG_INIT
Wiener process for Thermostat # 1        1 F T T  -1.4142154026487963E+00        2150797701.0        1734161780.0        2512496798.0        1094189662.0         888815576.0        1835919867.0             12345.0             12345.0             12345.0             12345.0             12345.0             12345.0             12345.0             12345.0             12345.0             12345.0             12345.0             12345.0
Wiener process for Thermostat # 2        1 F T T   7.6472162091126938E-01        3456684642.0        4256963201.0        3795499578.0        1410666108.0        1905928596.0        1167324153.0        3692455944.0        1366884236.0        2968912127.0         335948734.0        4161675175.0         475798818.0        3692455944.0        1366884236.0        2968912127.0         335948734.0        4161675175.0         475798818.0
Wiener process for Thermostat # 3        1 F T T   3.9266486034452308E-01        3444266336.0        3422507233.0        3856781304.0        1516419691.0        3838898481.0         241984129.0        1015873554.0        1310354410.0        2249465273.0         994084013.0        2912484720.0        3876682925.0        1015873554.0        1310354410.0        2249465273.0         994084013.0        2912484720.0        3876682925.0
Wiener process for Thermostat # 4        1 F T T   3.6101163700944697E-02        2449416560.0        3759632288.0        3541034340.0         460582428.0        1293034015.0        1745002198.0        2338701263.0        1119171942.0        2570676563.0         317077452.0        3194180850.0         618832124.0        2338701263.0        1119171942.0        2570676563.0         317077452.0        3194180850.0         618832124.0
Wiener process for Thermostat # 5        1 F T T   3.1648507897925365E-01         570116290.0        2511602561.0         262636332.0        2447980978.0        3946372151.0        2332305886.0        1597262096.0        3906379055.0        3312112953.0        1016013135.0        4099474108.0         275305423.0        1597262096.0        3906379055.0        3312112953.0        1016013135.0        4099474108.0         275305423.0
Wiener process for Thermostat # 6        1 F T T  -7.0605282145036463E-01        1917325057.0        1742767357.0         151725472.0         923677339.0         582757906.0        1919855369.0          97147054.0        3131372450.0         829345164.0        3691032523.0        3006063034.0        4259826321.0          97147054.0        3131372450.0         829345164.0        3691032523.0        3006063034.0        4259826321.0
Wiener process for Thermostat # 7        1 F T T  -5.8786731941992054E-01         124203118.0         615725958.0        3840768177.0        1370079246.0        3190413915.0        2005366824.0         796079799.0        2105258207.0         955365076.0        2923159030.0        4116632677.0        3067683584.0         796079799.0        2105258207.0         955365076.0        2923159030.0        4116632677.0        3067683584.0
Wiener process for Thermostat # 8        1 F T T  -2.1800595069550015E+00        4269663093.0        2063226695.0        1725244603.0        1480581294.0         538284019.0        3454578162.0        3281794178.0        2616230133.0        1457051261.0        2762791137.0        2480527362.0        2282316169.0        3281794178.0        2616230133.0        1457051261.0        2762791137.0        2480527362.0        2282316169.0
Wiener process for Thermostat # 9        1 F T T   4.1018856164439615E-01        2765249966.0         722508753.0        2065022275.0        2926171778.0        1601481192.0        1882469530.0        3777646647.0        1837464056.0        4204654757.0         664239048.0        4190510072.0        2959195122.0        3777646647.0        1837464056.0        4204654757.0         664239048.0        4190510072.0        2959195122.0
Wiener process for Thermostat # 10       1 F T T   1.8346754086897305E-02         387335405.0        3276094107.0        3635184196.0        1939731416.0        1109673317.0        3769040030.0        4215590817.0        3862461878.0        1087200967.0        1544910132.0         936383720.0        1611370123.0        4215590817.0        3862461878.0        1087200967.0        1544910132.0         936383720.0        1611370123.0
Wiener process for Thermostat # 11       1 F T T   4.6711728238017314E-01        4136558413.0        1356731853.0        1775106197.0        2002372162.0        2938128821.0        3192159682.0        1683636369.0         362165168.0         814316280.0         869382050.0         980203903.0        2062101717.0        1683636369.0         362165168.0         814316280.0         869382050.0         980203903.0        2062101717.0
Wiener process for Thermostat # 12       1 F T T  -9.8573227247693318E-01        1755530999.0         892232260.0        3117067146.0        2267873526.0         257626394.0        4161600755.0         272317999.0         166758548.0         310112982.0         201045826.0        1680231254.0         118290799.0         272317999.0         166758548.0         310112982.0         201045826.0        1680231254.0         118290799.0
Wiener process for Thermostat # 13       1 F T T  -2.8782747350715865E-01        3285929971.0        2904334399.0         167561630.0        2720510060.0        2819229583.0         808395958.0        2245755202.0        1652682525.0        2865544364.0         721509566.0         209733568.0         592362218.0        2245755202.0        1652682525.0        2865544364.0         721509566.0         209733568.0         592362218.0
Wiener process for Thermostat # 14       1 F T T   2.2292301493694371E+00        2675255057.0        1548394779.0        3772620780.0        1852909375.0        3095126912.0        2260263857.0        3003961408.0        3529909391.0          14538032.0        3603919910.0         566682685.0        1235016484.0        3003961408.0        3529909391.0          14538032.0        3603919910.0         566682685.0        1235016484.0
Wiener process for Thermostat # 15       1 F T T  -1.5074184562283406E+00         387217885.0         118238662.0        2221700255.0        3527765315.0        2738405402.0        3478982446.0         596094074.0        2279636413.0        3050913596.0        1739649456.0        2368706608.0        3058697049.0         596094074.0        2279636413.0        3050913596.0        1739649456.0        2368706608.0        3058697049.0
Wiener process for Thermostat # 16       1 F T T  -1.7082532523259297E+00         290150041.0        4159132902.0        2751557370.0         987752298.0        2890694142.0        4058446714.0        1437096527.0        2547142266.0        2541498983.0        2640839690.0        2160978219.0        2618657830.0        1437096527.0        2547142266.0        2541498983.0        2640839690.0        2160978219.0        2618657830.0
Wiener process for Thermostat # 17       1 F T T  -1.5500595730380862E+00        3989248548.0         219844825.0        1861841992.0        2463740430.0        2779245784.0         858253733.0        3224044943.0        1227141655.0        2220611050.0        1504589054.0        2829780440.0         108189859.0        3224044943.0        1227141655.0        2220611050.0        1504589054.0        2829780440.0         108189859.0
Wiener process for Thermostat # 18       1 F T T  -3.8632920244953232E-02         607584305.0        2614830453.0        1887996775.0        1490582438.0        1559936535.0        3047888821.0         927434978.0        1593504038.0        2143021818.0        1749489845.0        1330187821.0        2371554242.0         927434978.0        1593504038.0        2143021818.0        1749489845.0        1330187821.0        2371554242.0
Wiener process for Thermostat # 19       1 F T T  -3.5688248505256309E-01        4201214742.0        2648244636.0         176538312.0        4042850459.0        2473503214.0        2207806832.0        3446225690.0         835741554.0        2195834023.0        1297741021.0        3357053382.0         383824268.0        3446225690.0         835741554.0        2195834023.0        1297741021.0        3357053382.0         383824268.0
Wiener process for Thermostat # 20       1 F T T  -3.2509258428850202E-01        4071571578.0        1727018683.0         183040150.0        4129690131.0        1032715599.0        2070540462.0        3984477137.0        1267973573.0        3770063761.0         216527865.0        1568537936.0        1200352663.0        3984477137.0        1267973573.0        3770063761.0         216527865.0        1568537936.0        1200352663.0
Wiener process for Thermostat # 21       1 F T T   1.1695605815694707E+00        2845681129.0         983709497.0        2784952513.0        3018966617.0        2313154748.0        1393514015.0        2503334853.0        3179736892.0        2080184241.0        2881517721.0        3611607237.0        2639045213.0        2503334853.0        3179736892.0        2080184241.0        2881517721.0        3611607237.0        2639045213.0
Wiener process for Thermostat # 22       1 F T T   3.6085977930882057E-01        2871393054.0        1805432388.0        1607592585.0        3456667012.0        2875349441.0        2850740602.0        2784301963.0        3004110709.0        4065265451.0        2351994899.0        1824839263.0        1473060447.0        2784301963.0        3004110709.0        4065265451.0        2351994899.0        1824839263.0        1473060447.0
Wiener process for Thermostat # 23       1 F T T  -1.4377244191580167E+00         951817766.0        3498788295.0        1797368077.0        2589896379.0        2615289067.0        3670781722.0        3645411182.0        1391027122.0        3995023402.0         536114258.0        1376034799.0        2391282907.0        3645411182.0        1391027122.0        3995023402.0         536114258.0        1376034799.0        2391282907.0
Wiener process for Thermostat # 24       1 F T T   8.8659794246772039E-01          47084495.0        1455710722.0        2749518133.0         282953008.0        2366074776.0        2155945921.0        4205039797.0        2998067142.0        2737381050.0        2060484144.0          21123025.0         900610517.0        4205039797.0        2998067142.0        2737381050.0        2060484144.0          21123025.0         900610517.0
Wiener process for Thermostat # 25       1 F T T   2.3893452074232222E+00        2875122413.0        2598169934.0        1867151605.0          83985878.0        4282630562.0         103898831.0        1708138263.0        1103344630.0        3131738563.0         354874525.0        1462105562.0        2799820805.0        1708138263.0        1103344630.0        3131738563.0         354874525.0        1462105562.0        2799820805.0
Wiener process for Thermostat # 26       1 F T T  -1.3020935145593765E-01         588935713.0        3101017486.0        3722579255.0        3639185684.0        1225933607.0        1499469406.0        1762624356.0        3338520614.0        1869672149.0        2420033342.0        3823777008.0        4112813433.0        1762624356.0        3338520614.0        1869672149.0        2420033342.0        3823777008.0        4112813433.0
Wiener process for Thermostat # 27       1 F T T   1.0819369948507500E+00        2826071059.0        1296940015.0         327411840.0         906020569.0        3048357049.0        3972106032.0        1406960847.0        2689758640.0        2086764669.0        1479781266.0        4277003072.0        4173905453.0        1406960847.0        2689758640.0        2086764669.0        1479781266.0        4277003072.0        4173905453.0
Wiener process for Thermostat # 28       1 F T T   6.5048369589773725E-01         178353444.0        3954104364.0        3803222442.0        3440112512.0            581513.0        4230740644.0        3217706054.0        3907922111.0        3316415646.0         934936431.0        1155310743.0        1383590847.0        3217706054.0        3907922111.0        3316415646.0         934936431.0        1155310743.0        1383590847.0
Wiener process for Thermostat # 29       1 F T T  -1.1191785224545736E+00         724156404.0         494978957.0        1608594793.0        3890330592.0        3181058326.0        2390318624.0        2996242832.0        2506376012.0        1182520337.0         938957435.0        3286002927.0        1946707306.0        2996242832.0        2506376012.0        1182520337.0         938957435.0        3286002927.0        1946707306.0
Wiener process for Thermostat # 30       1 F T T   6.7099908323301460E-01         667209073.0        3643356638.0        1690709153.0        3257331230.0        3918561250.0         716607195.0        3757057907.0        1334546224.0        1509001838.0         991499802.0        1502864996.0         921145139.0        3757057907.0        1334546224.0        1509001838.0         991499802.0        1502864996.0         921145139.0
Wiener process for Thermostat # 31       1 F T T  -6.6203141251670805E-01         227060120.0        1988126879.0         337221972.0        1885846704.0        4148954816.0         862347558.0        3728532268.0         988545039.0        1631700325.0        1143954198.0        2209269908.0        1591407377.0        3728532268.0         988545039.0        1631700325.0        1143954198.0        2209269908.0        1591407377.0
Wiener process for Thermostat # 32       1 F T T  -5.0571989324189115E-01         293976055.0        4166218326.0        3076138453.0        1660329411.0        4031182413.0        3133287481.0        3294123071.0        1464634864.0        3721431761.0        2693241183.0        1754954480.0        3900039887.0        3294123071.0        1464634864.0        3721431761.0        2693241183.0        1754954480.0        3900039887.0
Wiener process for Thermostat # 33       1 F T T  -2.8444871383559729E-02        3151400320.0        4129903385.0        2555010589.0        4183403455.0        2204477029.0        4208641383.0         131824893.0        3188611738.0        1376082626.0        2419937722.0        2563475034.0        1251594162.0         131824893.0        3188611738.0        1376082626.0        2419937722.0        2563475034.0        1251594162.0
Wiener process for Thermostat # 34       1 F T T   1.2204240830554698E+00         268719752.0        3221046166.0         968326818.0         420683226.0        4160666310.0        1691619393.0        3770164700.0        4029076745.0        1104720217.0        3496143152.0         735265587.0        3273706940.0        3770164700.0        4029076745.0        1104720217.0        3496143152.0         735265587.0        3273706940.0
Wiener process for Thermostat # 35       1 F T T  -2.7398251245279087E-01        1218470749.0        4103125513.0        3742099723.0        1037429385.0        3258674098.0        3105260753.0        2131062045.0        2455732983.0         789218840.0        1151705419.0         286383816.0         924846932.0        2131062045.0        2455732983.0         789218840.0        1151705419.0         286383816.0         924846932.0
Wiener process for Thermostat # 36       1 F T T   5.9122578706459628E-01        1229988985.0         873832048.0        1412153834.0        1651980207.0        2292934534.0        2180124816.0        2053528341.0        4170407123.0        3515474899.0          98091789.0        1000335891.0        3854257602.0        2053528341.0        4170407123.0        3515474899.0          98091789.0        1000335891.0        3854257602.0
Wiener process for Thermostat # 37       1 F T T   7.6274755290196394E-01        3746248824.0        3748040787.0        3437747169.0        3265818260.0         952650235.0        3637811634.0        2469807084.0           9172128.0        3362394154.0        4021928081.0        2651348937.0        2296225074.0        2469807084.0           9172128.0        3362394154.0        4021928081.0        2651348937.0        2296225074.0
Wiener process for Thermostat # 38       1 F T T  -1.0347853789617261E+00        4007428354.0        2282472210.0        3181223146.0        4291840853.0         831842990.0         943579704.0         794136241.0        1326962976.0        1423309168.0         588827532.0        1370684418.0        1646244893.0         794136241.0        1326962976.0        1423309168.0         588827532.0        1370684418.0        1646244893.0
Wiener process for Thermostat # 39       1 F T T  -6.1527676423118249E-01         474215029.0        1222907294.0        3432038075.0        2886153324.0         972428518.0        2522982626.0        2866999578.0        1918106148.0        3899143652.0        2905238681.0        3298551408.0         326591245.0        2866999578.0        1918106148.0        3899143652.0        2905238681.0        3298551408.0         326591245.0
Wiener process for Thermostat # 40       1 F T T   2.8192728210088797E-01         697576884.0         420098403.0        3532088267.0        2166887186.0        2227244604.0        1238326779.0        3040096556.0        1206876890.0         780501254.0         597456198.0        1004013014.0        3962406934.0        3040096556.0        1206876890.0         780501254.0         597456198.0        1004013014.0        3962406934.0
Wiener process for Thermostat # 41       1 F T T   1.9581172179823680E-01        1772268139.0        3609891335.0        2241883763.0        1242773878.0        3903667072.0         256062945.0        3970659565.0        2743575038.0        4070166570.0         141329301.0        2711190398.0         148640829.0        3970659565.0        2743575038.0        4070166570.0         141329301.0        2711190398.0         148640829.0
Wiener process for Thermostat # 42       1 F T T  -1.2222780028442894E+00        1665013711.0         686488803.0        3181942754.0         273213647.0        3258425618.0        2534708418.0         216582539.0        3263278363.0        1880572884.0        3722908253.0         287018188.0         285207334.0         216582539.0        3263278363.0        1880572884.0        3722908253.0         287018188.0         285207334.0
         &END RNG_INIT
         &S
               5.2232628400073547E-02   -1.5079216275566647E-02   -1.0145904708734008E-02    1.3803121172676330E-02 \
               3.0609723718356747E-02   -3.8258921813595040E-02    2.8698598355589865E-02   -1.2059079025463914E-02   -9.9191766625517722E-03 \
              -1.1513383716030419E-02    3.0533307242357099E-02    2.1174221474563000E-02   -1.9469892253761747E-02    1.5889278185842997E-02 \
              -2.3579213515169911E-03    9.6067406830901460E-03   -2.8416322397475706E-02   -4.0651706422058995E-03   -1.2097066649505807E-02 \
              -2.2171730088497883E-02   -2.4989248723245261E-02    1.3337992470950544E-02   -2.6474553192554363E-03   -2.4809277018545232E-02 \
              -5.6224866458152636E-03   -5.2231503049464658E-03    1.2393219118370175E-02    1.6217227455949473E-02    3.2171144312100941E-02 \
              -6.2071238296790088E-03   -2.8032510187791324E-02   -1.3349279222896809E-02   -1.8527073735439981E-02   -1.4242863421994167E-02 \
               3.9839754162571295E-02   -7.8128907036168534E-03   -4.6380210927996754E-02   -1.3444544273396019E-02    2.9858462817140296E-03 \
              -6.0581103395030908E-05   -3.1796644379801030E-02    2.1216973138494331E-03    2.8727038907216968E-02    1.1144956908515209E-02 \
              -2.5625930190532442E-02    3.3791909720417936E-02   -5.1444216704771374E-02   -1.8957074250108244E-02   -2.8598874465229828E-03 \
              -5.5087631959962177E-02   -2.0548601091078672E-02   -2.7705267971550891E-02    2.9928040659500228E-02    4.7299367768990751E-03 \
              -6.4405610844024311E-02    5.9352313324977216E-02   -4.8777894632735380E-02    5.3838629362355686E-02   -2.7142211357989526E-02 \
              -6.7213619334388408E-02   -2.6379033807969507E-02   -2.8229043556173280E-02   -3.0370538588363839E-02   -6.2317798423327193E-02 \
              -3.2600592104443646E-02    2.6004730212573192E-02    2.1651319427162387E-03   -1.6214881431949213E-02   -2.9395285065644896E-02 \
               3.0354068644157812E-02    2.0597064034681246E-02    7.6046986996166771E-03   -1.2914205215320274E-02    6.1012378956297797E-02 \
               1.5238469516540325E-02   -6.1931356569827969E-03    4.9158327662733817E-03    2.3923487687657629E-02    4.3377122995013791E-02 \
              -5.5502251790169634E-02    4.4364527082316120E-02    3.4389225090365190E-02    3.6336818808339291E-02    7.7693973355791660E-03 \
               1.9809813445979596E-02    1.5013831293282253E-02   -2.2882265045249740E-02   -2.1458025307303567E-02    4.1398807059642675E-02 \
               3.9315761949834643E-03    1.5714543564038165E-04    1.9306905280950533E-02   -1.3489992615188228E-02    1.8291300495641878E-02 \
               1.6438699196202337E-02   -7.4043464857989670E-03    2.3854258303708239E-02   -4.8731680988086737E-02    3.2312251705669728E-03 \
               1.8032073428331224E-03   -1.2126147496056894E-02    1.2732237254418202E-02   -1.4096432904441791E-02    5.2121583113924695E-02 \
               6.9738535848872865E-02   -1.7847038578468991E-02   -1.6544340377185926E-02   -3.4934234634941283E-03   -1.5364583521677928E-02 \
               1.2960226063689614E-02    3.4279567237374173E-02    9.6126849738157173E-04    3.8178106104081330E-02   -2.1619201457079060E-02 \
               2.7261937720571322E-03    2.5298884747982000E-02   -7.2335153336100556E-03   -5.7710227909313540E-03   -5.2454223836307177E-02 \
               3.2164797302171068E-02    9.0252054649607970E-03    1.8732205244391700E-02   -3.2970429467538039E-02   -3.9797310946006394E-02 \
               7.4587099502278070E-03    6.1178131571705593E-03   -1.8116408957574246E-02    5.2013311477861146E-02   -3.7916723546185582E-02 \
              -6.6303813177377310E-02   -3.5812297440969323E-02   -4.1102309502781001E-02   -5.4830855182915243E-02   -1.3090734393294664E-02 \
               4.4786929500894600E-02   -5.0838037388258681E-03    4.6292019083066661E-02    1.0675572954126071E-02   -2.3937935142514650E-02 \
               3.5451078272589982E-02    5.8972190822786270E-02   -5.2571615604047092E-02   -4.1160960113979926E-02   -2.6082306253648917E-02 \
               4.2717240311770439E-02   -3.7691876955655499E-04   -4.3292116562759483E-02    1.0488608349701578E-02    4.9441577861974152E-02 \
               2.1378249387841025E-02   -2.0556828535771877E-02   -3.4265895822273171E-02   -1.7651074590673145E-02   -1.3911115684894679E-02 \
              -3.5788634603029822E-03   -2.0256533039962779E-03   -2.8942933751949600E-02    2.5894671302645077E-02   -1.4131979540986992E-02 \
               3.7512486421191482E-03   -5.0782501855167278E-02   -2.4248324555228219E-02   -4.5159965988557290E-04   -4.9221266934036251E-03 \
              -1.1501611081997817E-02   -2.8376188479705988E-03    1.3985285148879308E-02    4.0518321898857484E-02   -2.5265602814951611E-02 \
              -1.8195961120982915E-02   -1.0856941413069336E-02   -2.2616862527151574E-02    4.7599779849746796E-02   -1.1275448531267322E-02 \
              -1.3499102830453073E-02    4.1076674265695754E-03    5.1306539374818702E-02    1.1292297757657804E-02    5.8948112801532034E-03 \
              -4.6776042447416025E-02    1.6276216587788977E-02   -6.3651838072510097E-02   -2.0405475513740595E-03   -1.0591158576701222E-03 \
              -4.4789551571822052E-02   -1.2770725941019096E-03    1.5750491478968086E-02    3.2780780410493621E-02   -3.2872871659331199E-02 \
               2.2079734604261519E-02    3.1397324842005074E-02   -2.6820950845659126E-02    3.6542018052531187E-03   -1.6676827671882475E-02 \
               3.6777576416141887E-03   -1.5315288386763569E-02   -1.9777961917662127E-03    1.7707019928540738E-02    3.0132509937451132E-02 \
               6.2185428278178911E-04   -5.9373976419679640E-02   -3.5669668780164095E-02    3.5983017061356114E-02   -6.8249754223107285E-03 \
              -4.8535206462686241E-02    3.3191425191374260E-02   -3.9572556586582930E-02   -5.0744657460865199E-02    7.4621017942417319E-04 \
               2.5969663102818695E-02
         &END S
       &END GLE
     &END THERMOSTAT
     &AVERAGES  T
       &RESTART_AVERAGES
         ITIMES_START  1
         AVECPU     1.8907550449100910E+01
         AVEHUGONIOT     0.0000000000000000E+00
         AVETEMP_BARO     0.0000000000000000E+00
         AVEPOT    -2.8671162031231628E+01
         AVEKIN     2.0276942589052674E-02
         AVETEMP     3.0490211460030417E+02
         AVEKIN_QM     0.0000000000000000E+00
         AVETEMP_QM     0.0000000000000000E+00
         AVEVOL     6.7483345830898133E+03
         AVECELL_A     1.8897261328856636E+01
         AVECELL_B     1.8897261328856636E+01
         AVECELL_C     1.8897261328856636E+01
         AVEALPHA     9.0000000000000000E+01
         AVEBETA     9.0000000000000000E+01
         AVEGAMMA     9.0000000000000000E+01
         AVE_ECONS     1.9978084158166534E+00
         AVE_PRESS    -3.0121201037667749E+01
         AVE_PXX    -4.0424674334527158E+00
       &END RESTART_AVERAGES
     &END AVERAGES
   &END MD
   &PRINT
     &TRAJECTORY  MEDIUM
       &EACH
         MD  1
       &END EACH
     &END TRAJECTORY
     &FORCES  SILENT
       &EACH
         MD  1
       &END EACH
     &END FORCES
     &RESTART  SILENT
       BACKUP_COPIES  3
       &EACH
         MD  10000
       &END EACH
     &END RESTART
   &END PRINT
 &END MOTION
 &FORCE_EVAL
   METHOD  QS
   STRESS_TENSOR  ANALYTICAL
   &DFT
     BASIS_SET_FILE_NAME HFX_BASIS
     POTENTIAL_FILE_NAME GTH_POTENTIALS
     UKS  T
     PLUS_U_METHOD  MULLIKEN
     &SCF
       MAX_SCF  50
       EPS_SCF     9.9999999999999995E-07
       SCF_GUESS  RESTART
       &OT  T
         MINIMIZER  CG
         PRECONDITIONER  FULL_SINGLE_INVERSE
         ENERGY_GAP     1.0000000000000001E-01
       &END OT
       &OUTER_SCF  T
         EPS_SCF     9.9999999999999995E-07
         MAX_SCF  15
       &END OUTER_SCF
     &END SCF
     &QS
       EPS_DEFAULT     1.0000000000000000E-13
     &END QS
     &MGRID
       NGRIDS  5
       CUTOFF     8.0000000000000000E+02
       REL_CUTOFF     6.0000000000000000E+01
     &END MGRID
     &XC
       DENSITY_CUTOFF     1.0000000000000000E-10
       GRADIENT_CUTOFF     1.0000000000000000E-10
       TAU_CUTOFF     1.0000000000000000E-10