 # Version information for this restart file 
 # current date 2023-07-12 05:36:02.810
 # current working dir /scratch365/omendibl/Phase_2/NNFFs/butane_3/AIMD_300K_20ps
 # Program compiled at                              Thu Sep 15 06:09:12 EDT 2022
 # Program compiled on                                         epycfe.crc.nd.edu
 # Program compiled for                                                    local
 # Source code revision number                                       git:bd915bf
 &GLOBAL
   PRINT_LEVEL  MEDIUM
   PROJECT_NAME Butane_aimd_test
   RUN_TYPE  MD
 &END GLOBAL
 &MOTION
   &MD
     ENSEMBLE  NVT
     STEPS  40000
     TIMESTEP     4.9999999999999994E-01
     STEP_START_VAL  30000
     TIME_START_VAL     1.5000000000003813E+04
     ECONS_START_VAL    -2.8655824355317748E+01
     TEMPERATURE     3.0000000000000000E+02
     &THERMOSTAT
       TYPE  GLE
       REGION  MASSIVE
       &GLE
         NDIM  5
         A_SCALE     1.0000000000000000E+00
         A_LIST     1.8595758612559999E+02    2.7263853498399998E-01    1.1526100454610001E+01   -3.6414578262600003E+01 \
             2.3173375816020001E+02
         A_LIST    -2.7809524712060002E-01    8.5951591808710006E-05    7.2189048017650004E-01   -1.9844539343859999E-01 \
             4.2409257583420001E-01
         A_LIST    -1.4825808131210000E+01   -7.2189048017650004E-01    1.3590902121280000E+00    5.1498896280349999E+00 \
            -9.9949268450990001E+00
         A_LIST    -1.0372189126880000E+01    1.9844539343859999E-01   -5.1498896280349999E+00    2.6661910891169999E+01 \
             1.1507715495310000E+01
         A_LIST     2.1801346360420001E+02   -4.2409257583420001E-01    9.9949268450990001E+00   -1.1507715495310000E+01 \
             3.0958394565589998E+02
         &THERMOSTAT_ENERGY
              -5.8276013271077159E-03
               1.7537166550690150E-02
               7.8000239494162822E-03
              -4.4883368221395173E-02
               4.1056727439176613E-02
              -4.4820495156555262E-03
               6.1326852801507153E-02
              -3.0457548527233477E-02
               7.1361331450810160E-03
               1.1008106472861084E-02
               1.3700850649397188E-02
              -1.3603887358834922E-02
              -8.9454682130820570E-03
              -1.8038551342338761E-02
              -1.5844801291590754E-02
               5.1882008161132982E-02
              -8.2502191449502937E-02
               3.8524347561876324E-02
              -3.3839092606663540E-02
              -1.1661062294838764E-03
               2.7767844489539735E-02
              -2.1862826065527648E-02
               1.5328430225592242E-02
               6.5401196450009125E-03
               2.9876263764424787E-02
              -1.1432681679232507E-02
              -4.9701347959364983E-02
              -2.5541974362753933E-02
              -3.0357030058978079E-02
               2.4029988553272364E-02
               3.2689390234980367E-02
              -4.1466497155330476E-02
               3.9962769202211403E-02
              -2.3774784036143765E-02
              -5.7129261437472711E-03
               6.6310865599071497E-03
               2.5339706750732639E-02
              -2.8088379923266911E-02
               2.6030351776006853E-02
               6.4992268679220095E-04
               1.9527149564122860E-02
              -1.2698580632685554E-02
         &END THERMOSTAT_ENERGY
         &RNG_INIT
Wiener process for Thermostat # 1        1 F T T   7.2925670240158180E-01        2030460942.0        3116871309.0        3452090821.0         839426909.0         538053352.0        1770890490.0             12345.0             12345.0             12345.0             12345.0             12345.0             12345.0             12345.0             12345.0             12345.0             12345.0             12345.0             12345.0
Wiener process for Thermostat # 2        1 F T T   5.0787854760667918E-02        4102862567.0         811893237.0        2702174792.0         955445946.0        2884840717.0         747192032.0        3692455944.0        1366884236.0        2968912127.0         335948734.0        4161675175.0         475798818.0        3692455944.0        1366884236.0        2968912127.0         335948734.0        4161675175.0         475798818.0
Wiener process for Thermostat # 3        1 F T T   3.8052175735757304E-01        3491401905.0        1011220588.0        1387551957.0        3241921720.0        2155231761.0        3924475482.0        1015873554.0        1310354410.0        2249465273.0         994084013.0        2912484720.0        3876682925.0        1015873554.0        1310354410.0        2249465273.0         994084013.0        2912484720.0        3876682925.0
Wiener process for Thermostat # 4        1 F T T   7.2075706825984365E-01        3418705985.0        3601112386.0        3058637120.0        4095781341.0        4047171929.0        1021019549.0        2338701263.0        1119171942.0        2570676563.0         317077452.0        3194180850.0         618832124.0        2338701263.0        1119171942.0        2570676563.0         317077452.0        3194180850.0         618832124.0
Wiener process for Thermostat # 5        1 F T T  -1.7594196676813938E+00        1164543054.0        1791244799.0        3691122387.0         293027202.0         628426870.0        2031291701.0        1597262096.0        3906379055.0        3312112953.0        1016013135.0        4099474108.0         275305423.0        1597262096.0        3906379055.0        3312112953.0        1016013135.0        4099474108.0         275305423.0
Wiener process for Thermostat # 6        1 F T T   1.0504320321546787E+00        2450556475.0         373478900.0        1462415368.0        2189480755.0        1264882630.0        1905536774.0          97147054.0        3131372450.0         829345164.0        3691032523.0        3006063034.0        4259826321.0          97147054.0        3131372450.0         829345164.0        3691032523.0        3006063034.0        4259826321.0
Wiener process for Thermostat # 7        1 F T T  -2.1294427384199524E-01        1495165694.0         623347485.0        2890302997.0         234614396.0        3033933647.0         258743165.0         796079799.0        2105258207.0         955365076.0        2923159030.0        4116632677.0        3067683584.0         796079799.0        2105258207.0         955365076.0        2923159030.0        4116632677.0        3067683584.0
Wiener process for Thermostat # 8        1 F T T   2.3275147656685410E-02        4147539341.0        3148838092.0         523134411.0        4099144614.0         739583193.0        4194833086.0        3281794178.0        2616230133.0        1457051261.0        2762791137.0        2480527362.0        2282316169.0        3281794178.0        2616230133.0        1457051261.0        2762791137.0        2480527362.0        2282316169.0
Wiener process for Thermostat # 9        1 F T T   5.7820589412686385E-01        3036605035.0         329549128.0        2384713779.0        1475933919.0        1420484981.0         517175153.0        3777646647.0        1837464056.0        4204654757.0         664239048.0        4190510072.0        2959195122.0        3777646647.0        1837464056.0        4204654757.0         664239048.0        4190510072.0        2959195122.0
Wiener process for Thermostat # 10       1 F T T  -6.7416954929837614E-01        3869109834.0         263887036.0        2482617250.0         330417778.0        4132681698.0        2925488676.0        4215590817.0        3862461878.0        1087200967.0        1544910132.0         936383720.0        1611370123.0        4215590817.0        3862461878.0        1087200967.0        1544910132.0         936383720.0        1611370123.0
Wiener process for Thermostat # 11       1 F T T   1.0209647996139302E-01        2676187559.0        1729595512.0        3047399568.0        2457455193.0        3513815486.0        3127992518.0        1683636369.0         362165168.0         814316280.0         869382050.0         980203903.0        2062101717.0        1683636369.0         362165168.0         814316280.0         869382050.0         980203903.0        2062101717.0
Wiener process for Thermostat # 12       1 F T T   1.3657991039210808E+00        3355399640.0        1201949005.0        2220052797.0         602099817.0        3257442448.0        2113763727.0         272317999.0         166758548.0         310112982.0         201045826.0        1680231254.0         118290799.0         272317999.0         166758548.0         310112982.0         201045826.0        1680231254.0         118290799.0
Wiener process for Thermostat # 13       1 F T T  -5.1380237404699913E-01        1530784128.0        2604215155.0         146531263.0        1584910007.0        2097190991.0         934255670.0        2245755202.0        1652682525.0        2865544364.0         721509566.0         209733568.0         592362218.0        2245755202.0        1652682525.0        2865544364.0         721509566.0         209733568.0         592362218.0
Wiener process for Thermostat # 14       1 F T T   4.7394844143071707E-01        1618519299.0        1319266202.0        1365169512.0        1263003928.0        2859061791.0        3289144424.0        3003961408.0        3529909391.0          14538032.0        3603919910.0         566682685.0        1235016484.0        3003961408.0        3529909391.0          14538032.0        3603919910.0         566682685.0        1235016484.0
Wiener process for Thermostat # 15       1 F T T   7.9073730440020140E-01        3576920591.0        2484392560.0        1381243185.0         572592200.0        4206326813.0        2364729641.0         596094074.0        2279636413.0        3050913596.0        1739649456.0        2368706608.0        3058697049.0         596094074.0        2279636413.0        3050913596.0        1739649456.0        2368706608.0        3058697049.0
Wiener process for Thermostat # 16       1 F T T  -6.6774100597599406E-01        1286342735.0        1131154774.0        1366834212.0        1985082088.0        4084530312.0         767666388.0        1437096527.0        2547142266.0        2541498983.0        2640839690.0        2160978219.0        2618657830.0        1437096527.0        2547142266.0        2541498983.0        2640839690.0        2160978219.0        2618657830.0
Wiener process for Thermostat # 17       1 F T T   1.6047303793595342E+00         192135080.0        2989862284.0        1258811756.0        3557799848.0         410742678.0        3931717257.0        3224044943.0        1227141655.0        2220611050.0        1504589054.0        2829780440.0         108189859.0        3224044943.0        1227141655.0        2220611050.0        1504589054.0        2829780440.0         108189859.0
Wiener process for Thermostat # 18       1 F T T  -1.4767716561436356E-01         236238469.0        3047608988.0        1471524657.0        1370900464.0        1092728728.0         490845489.0         927434978.0        1593504038.0        2143021818.0        1749489845.0        1330187821.0        2371554242.0         927434978.0        1593504038.0        2143021818.0        1749489845.0        1330187821.0        2371554242.0
Wiener process for Thermostat # 19       1 F T T  -5.0756309910712824E-02        1912930551.0         634642313.0        1589024684.0        2709888949.0        3337327274.0         234046040.0        3446225690.0         835741554.0        2195834023.0        1297741021.0        3357053382.0         383824268.0        3446225690.0         835741554.0        2195834023.0        1297741021.0        3357053382.0         383824268.0
Wiener process for Thermostat # 20       1 F T T   1.0690744244512340E+00        3816706078.0         991107280.0         177005657.0        4138807888.0        1560961497.0        2727708661.0        3984477137.0        1267973573.0        3770063761.0         216527865.0        1568537936.0        1200352663.0        3984477137.0        1267973573.0        3770063761.0         216527865.0        1568537936.0        1200352663.0
Wiener process for Thermostat # 21       1 F T T  -1.1960592673585828E+00        3324627549.0        3586242970.0        1201737227.0        1545336546.0        2936094110.0         213413739.0        2503334853.0        3179736892.0        2080184241.0        2881517721.0        3611607237.0        2639045213.0        2503334853.0        3179736892.0        2080184241.0        2881517721.0        3611607237.0        2639045213.0
Wiener process for Thermostat # 22       1 F T T  -6.7168478581562618E-01         663993953.0          98931009.0         595132396.0         737034949.0        2683362145.0        1467908665.0        2784301963.0        3004110709.0        4065265451.0        2351994899.0        1824839263.0        1473060447.0        2784301963.0        3004110709.0        4065265451.0        2351994899.0        1824839263.0        1473060447.0
Wiener process for Thermostat # 23       1 F T T  -5.5650642502873782E-01        1218739910.0        3715294845.0         786832916.0         877490224.0        3553981035.0         737668015.0        3645411182.0        1391027122.0        3995023402.0         536114258.0        1376034799.0        2391282907.0        3645411182.0        1391027122.0        3995023402.0         536114258.0        1376034799.0        2391282907.0
Wiener process for Thermostat # 24       1 F T T  -3.6457747207215985E-01        1424761610.0         824864137.0        2355160492.0        2330695342.0        3967909473.0        2213735032.0        4205039797.0        2998067142.0        2737381050.0        2060484144.0          21123025.0         900610517.0        4205039797.0        2998067142.0        2737381050.0        2060484144.0          21123025.0         900610517.0
Wiener process for Thermostat # 25       1 F T T  -1.1788663155558325E+00        2667505360.0        2016481060.0        1863600943.0         529212211.0         955094284.0        2703804961.0        1708138263.0        1103344630.0        3131738563.0         354874525.0        1462105562.0        2799820805.0        1708138263.0        1103344630.0        3131738563.0         354874525.0        1462105562.0        2799820805.0
Wiener process for Thermostat # 26       1 F T T   2.2587873058947485E+00         789960013.0        4209689094.0        1668873717.0        3619989264.0        1466615876.0        2338526533.0        1762624356.0        3338520614.0        1869672149.0        2420033342.0        3823777008.0        4112813433.0        1762624356.0        3338520614.0        1869672149.0        2420033342.0        3823777008.0        4112813433.0
Wiener process for Thermostat # 27       1 F T T   1.9357031270346334E+00        3965870340.0         862769696.0        1757078763.0        4265524631.0        2205096344.0        3444439150.0        1406960847.0        2689758640.0        2086764669.0        1479781266.0        4277003072.0        4173905453.0        1406960847.0        2689758640.0        2086764669.0        1479781266.0        4277003072.0        4173905453.0
Wiener process for Thermostat # 28       1 F T T  -3.0417136548632291E+00        2383279175.0        3226945143.0         820263480.0         482142119.0        1212118724.0        1333195436.0        3217706054.0        3907922111.0        3316415646.0         934936431.0        1155310743.0        1383590847.0        3217706054.0        3907922111.0        3316415646.0         934936431.0        1155310743.0        1383590847.0
Wiener process for Thermostat # 29       1 F T T  -7.0506949492602622E-01        2221799338.0        1918424088.0         131826753.0        4188671223.0        1497455344.0         315544163.0        2996242832.0        2506376012.0        1182520337.0         938957435.0        3286002927.0        1946707306.0        2996242832.0        2506376012.0        1182520337.0         938957435.0        3286002927.0        1946707306.0
Wiener process for Thermostat # 30       1 F T T  -3.1961354681436582E-01        2966423851.0        3786034877.0         907021962.0        3379806924.0        1864944355.0        2385196406.0        3757057907.0        1334546224.0        1509001838.0         991499802.0        1502864996.0         921145139.0        3757057907.0        1334546224.0        1509001838.0         991499802.0        1502864996.0         921145139.0
Wiener process for Thermostat # 31       1 F T T  -2.1468697860780521E+00        1579307951.0        4081194859.0        3049554496.0        2814506866.0        2574741621.0        1066733368.0        3728532268.0         988545039.0        1631700325.0        1143954198.0        2209269908.0        1591407377.0        3728532268.0         988545039.0        1631700325.0        1143954198.0        2209269908.0        1591407377.0
Wiener process for Thermostat # 32       1 F T T   8.7193261570619118E-01        1365450219.0        2365796024.0        1600654243.0        3310032484.0        2768387328.0         529860918.0        3294123071.0        1464634864.0        3721431761.0        2693241183.0        1754954480.0        3900039887.0        3294123071.0        1464634864.0        3721431761.0        2693241183.0        1754954480.0        3900039887.0
Wiener process for Thermostat # 33       1 F T T   1.4530623360612218E+00        3545955404.0         818558361.0        1194002292.0         594611832.0        2025538639.0        1711912958.0         131824893.0        3188611738.0        1376082626.0        2419937722.0        2563475034.0        1251594162.0         131824893.0        3188611738.0        1376082626.0        2419937722.0        2563475034.0        1251594162.0
Wiener process for Thermostat # 34       1 F T T   2.0280221019880310E-01        2092429006.0        2067653935.0        4180934765.0        4177882693.0        3907415552.0        1717118225.0        3770164700.0        4029076745.0        1104720217.0        3496143152.0         735265587.0        3273706940.0        3770164700.0        4029076745.0        1104720217.0        3496143152.0         735265587.0        3273706940.0
Wiener process for Thermostat # 35       1 F T T   7.1750979739424425E-01        3480778358.0        4098861501.0         725950406.0         274276151.0        1582094653.0        1414363201.0        2131062045.0        2455732983.0         789218840.0        1151705419.0         286383816.0         924846932.0        2131062045.0        2455732983.0         789218840.0        1151705419.0         286383816.0         924846932.0
Wiener process for Thermostat # 36       1 F T T  -2.3813696623609806E-01        3743848798.0        1739739159.0        2112157530.0         943914327.0        4217309262.0        1100252654.0        2053528341.0        4170407123.0        3515474899.0          98091789.0        1000335891.0        3854257602.0        2053528341.0        4170407123.0        3515474899.0          98091789.0        1000335891.0        3854257602.0
Wiener process for Thermostat # 37       1 F T T   4.8905060354461249E-01         407823232.0         541270991.0        1223056419.0         925130023.0        1894484207.0        1666810331.0        2469807084.0           9172128.0        3362394154.0        4021928081.0        2651348937.0        2296225074.0        2469807084.0           9172128.0        3362394154.0        4021928081.0        2651348937.0        2296225074.0
Wiener process for Thermostat # 38       1 F T T   3.6051505013041268E-01         456033056.0        1539981922.0        1770701827.0        3887450485.0        2213625121.0        3139386771.0         794136241.0        1326962976.0        1423309168.0         588827532.0        1370684418.0        1646244893.0         794136241.0        1326962976.0        1423309168.0         588827532.0        1370684418.0        1646244893.0
Wiener process for Thermostat # 39       1 F T T   1.7097609792210537E-03        2508187847.0        4133924786.0         394534760.0        4096050027.0        1985293192.0        3876895648.0        2866999578.0        1918106148.0        3899143652.0        2905238681.0        3298551408.0         326591245.0        2866999578.0        1918106148.0        3899143652.0        2905238681.0        3298551408.0         326591245.0
Wiener process for Thermostat # 40       1 F T T  -2.4563514072855655E-01        2793513036.0        2093778034.0         737611028.0        1877721231.0         753403978.0        3127706932.0        3040096556.0        1206876890.0         780501254.0         597456198.0        1004013014.0        3962406934.0        3040096556.0        1206876890.0         780501254.0         597456198.0        1004013014.0        3962406934.0
Wiener process for Thermostat # 41       1 F T T   4.8558675904735393E-01        3120789204.0          70069394.0         412825014.0        3522721311.0         827399862.0        1475261460.0        3970659565.0        2743575038.0        4070166570.0         141329301.0        2711190398.0         148640829.0        3970659565.0        2743575038.0        4070166570.0         141329301.0        2711190398.0         148640829.0
Wiener process for Thermostat # 42       1 F T T  -1.2925405746620741E-01        1762985105.0        1585293976.0        1028486630.0        2877841982.0        3886526027.0        2362176397.0         216582539.0        3263278363.0        1880572884.0        3722908253.0         287018188.0         285207334.0         216582539.0        3263278363.0        1880572884.0        3722908253.0         287018188.0         285207334.0
         &END RNG_INIT
         &S
               3.5502952504185378E-02    1.8323948216512044E-02   -8.1486657744115447E-03    2.9824757232967843E-02 \
              -7.8512280830311434E-02    1.0545878786361146E-02   -3.8196223154134124E-02   -1.4742698596127243E-02   -9.6904692050006444E-02 \
               5.9105214243009768E-02   -1.5497336717585186E-02   -3.5128597148577134E-02   -6.6658960283210210E-03   -4.8833975734991132E-02 \
               8.3623125972226604E-04   -1.7771687085191380E-02   -3.0750302106465208E-02   -5.1746556589767172E-02   -4.5069526181252491E-02 \
               4.0489342039614427E-02    4.8269241681394553E-03   -1.1780247405286687E-02   -7.6977216503589047E-02   -2.8258385663544685E-02 \
              -5.9193586534756357E-02   -8.2403811860026818E-03   -4.5124955898873449E-02    1.6636968244369700E-02    1.5956822160404359E-02 \
               1.1904096964636401E-03    8.2530314869318951E-03    3.3843991982225402E-02   -3.3159990085710647E-02    3.5640867291714770E-02 \
               1.6919086064954823E-02    4.5143722556179579E-02   -1.9887908561416826E-02    2.0369103450748820E-02    2.1952991471171544E-02 \
               4.6272401582816453E-02    7.1532299905661793E-04   -1.5834512355044337E-03   -6.2255726215038783E-02    7.2369191473368863E-03 \
              -2.1935941469182735E-02   -3.2180100194155944E-02   -1.2546162851540673E-02    5.5248600823372102E-02    1.5236942475868742E-02 \
              -2.3466724447958644E-03   -3.0438267947429876E-02   -8.9305885234972123E-03   -1.9255539545538693E-02   -8.4527886181950604E-03 \
               4.4369866858204356E-02   -3.3737523084602823E-02   -6.7545771765414084E-02   -2.6278481485986063E-02    8.2065023910089414E-03 \
              -1.5078748863278695E-02    4.3885538566684592E-03   -9.8478573897487209E-03    4.7969909344185314E-03   -4.4646535352075627E-02 \
              -3.8983169127171556E-02   -2.8947902537844999E-02   -8.3132850748198567E-02    2.1236778926187537E-03   -1.2428260780428458E-02 \
              -1.1428196239492778E-02    4.3253284899708727E-02   -1.6685212029375066E-02   -1.1088648628049194E-02    1.9399108588005771E-02 \
               6.9681030929753252E-03   -3.9486683510777762E-02    1.6980085003670986E-03    5.8751314096949442E-03   -1.2160036896655162E-02 \
               3.1070846435352503E-02   -9.2672029166359048E-03    1.8485726441996867E-02   -4.5281247402645171E-02    5.7448215612265416E-02 \
              -3.1055052222305958E-02   -8.8620930263432136E-04    8.0418871027781776E-03   -2.6502933266368694E-02   -4.5233400210263536E-02 \
              -5.6243584151548259E-02   -2.0517822357252330E-02    1.6013982728102071E-02    7.6146372536009990E-02   -1.8323822465005926E-02 \
              -1.7015541386582463E-02   -7.7870641484231598E-03    7.8063214102350462E-03    8.3580906554978386E-03    1.0568343504169894E-02 \
              -3.1121141703909852E-03    1.1031738968143745E-02   -5.9315286855251989E-02    2.3045801808925983E-02   -3.5009682540618182E-02 \
               4.1072115636342332E-02    7.1984450522677546E-02   -3.7780214951436325E-02   -2.5119403098451103E-02   -1.9331665165347383E-02 \
               4.8148476860472075E-03    1.6539889607190592E-02    8.8820452506932508E-03   -3.9921571825047256E-02    1.0796122444531046E-02 \
               1.9095538134915577E-02    1.5129119636763329E-02   -3.7027512843532985E-02   -2.4277313913073466E-03   -2.9416436154512615E-02 \
               1.5054037294347816E-02   -6.1380214115959052E-05   -1.8081036435644835E-03   -5.2394161069082438E-03    7.2670606449531952E-02 \
              -1.6333772251731021E-02   -1.9532626709270422E-04   -1.3405351843275215E-02    4.6494618204009986E-03    2.9479012643703995E-02 \
               4.1629730888642372E-02    2.5332926173685721E-02   -1.9746651774613568E-02    4.3147886414846889E-02    1.4776390861374326E-02 \
               2.0519193513908532E-03   -1.3915773858564087E-02    3.5500898150290991E-02    2.0603884485365629E-02   -5.5308132268887880E-03 \
               7.2752220694398692E-03   -3.9727334525402849E-02   -2.9925218080279474E-02    1.1505873622274976E-02   -4.2251780831707504E-02 \
              -2.7145002167635055E-03   -1.4427619047527186E-02    3.6066708855016470E-02    1.1722430088193441E-02   -3.7060933042363424E-03 \
               5.7538367787132328E-03    8.4988420863747454E-03   -2.6069319822554955E-02   -7.0439356355941396E-02   -3.6980070223710346E-02 \
               3.4478007916694454E-02    3.3224497676656653E-02   -1.0981319581210618E-02   -8.4281095767738852E-03    1.3182623378151410E-02 \
              -1.1952270116369026E-02    5.0680601931800398E-03   -5.7763092102356643E-03   -6.3886338612472296E-02   -1.7317032049300032E-02 \
              -2.7799452662016843E-02    2.2807387765986255E-02    2.9800007940899674E-02   -2.6962600192222200E-02    3.9745875989656287E-02 \
              -4.3421953180546632E-02   -5.7304126362491782E-03   -3.2635897906618271E-02   -2.0380452356832366E-02   -7.9183160704155431E-03 \
               3.2928497997496906E-02    3.1756737453209538E-04   -7.9397960968010418E-03   -1.7325424928347204E-02    7.9160689694316513E-03 \
               3.7885176782873342E-03   -3.7328973115246735E-03    5.8724138254145951E-03   -3.6370920317039183E-03   -3.1604888409653760E-02 \
              -3.7387750180832395E-03   -6.9247946687270259E-02    9.0355864190971823E-03    1.5454327765915776E-02   -3.0058461467423858E-02 \
               1.3665073441940120E-02   -4.7851542837140632E-02    2.1433234114911792E-03    2.7640193740183838E-02   -2.0149679260557121E-02 \
               4.6382054822401222E-02    2.5445992746622845E-03    2.6617186367514527E-02    2.9851917126115920E-03   -2.7099101014723928E-03 \
              -5.2798416652459393E-02    2.1129363794146778E-03    1.0195552622256333E-02   -8.5791986720518562E-02   -1.6661874690467694E-02 \
              -6.4330923040742533E-03    5.0827728166348233E-03   -7.3947008786111009E-04   -4.7411338445683144E-03    2.3550167867811160E-02 \
              -2.0547474301981363E-02
         &END S
       &END GLE
     &END THERMOSTAT
     &AVERAGES  T
       &RESTART_AVERAGES
         ITIMES_START  1
         AVECPU     1.8068643748271374E+01
         AVEHUGONIOT     0.0000000000000000E+00
         AVETEMP_BARO     0.0000000000000000E+00
         AVEPOT    -2.8671320480125608E+01
         AVEKIN     1.9875879109758691E-02
         AVETEMP     2.9887136798312315E+02
         AVEKIN_QM     0.0000000000000000E+00
         AVETEMP_QM     0.0000000000000000E+00
         AVEVOL     6.7483345830889966E+03
         AVECELL_A     1.8897261328855834E+01
         AVECELL_B     1.8897261328855834E+01
         AVECELL_C     1.8897261328855834E+01
         AVEALPHA     9.0000000000000000E+01
         AVEBETA     9.0000000000000000E+01
         AVEGAMMA     9.0000000000000000E+01
         AVE_ECONS     3.1102341820966850E+00
         AVE_PRESS    -3.9445145517624915E+00
         AVE_PXX     3.8796269836186295E-02
       &END RESTART_AVERAGES
     &END AVERAGES
   &END MD
   &PRINT
     &TRAJECTORY  MEDIUM
       &EACH
         MD  1
       &END EACH
     &END TRAJECTORY
     &FORCES  SILENT
       &EACH
         MD  1
       &END EACH
     &END FORCES
     &RESTART  SILENT
       BACKUP_COPIES  3
       &EACH
         MD  10000
       &END EACH
     &END RESTART
   &END PRINT
 &END MOTION
 &FORCE_EVAL
   METHOD  QS
   STRESS_TENSOR  ANALYTICAL
   &DFT
     BASIS_SET_FILE_NAME HFX_BASIS
     POTENTIAL_FILE_NAME GTH_POTENTIALS
     UKS  T
     PLUS_U_METHOD  MULLIKEN
     &SCF
       MAX_SCF  50
       EPS_SCF     9.9999999999999995E-07
       SCF_GUESS  RESTART
       &OT  T
         MINIMIZER  CG
         PRECONDITIONER  FULL_SINGLE_INVERSE
         ENERGY_GAP     1.0000000000000001E-01
       &END OT
       &OUTER_SCF  T
         EPS_SCF     9.9999999999999995E-07
         MAX_SCF  15
       &END OUTER_SCF
     &END SCF
     &QS
       EPS_DEFAULT     1.0000000000000000E-13
     &END QS
     &MGRID
       NGRIDS  5
       CUTOFF     8.0000000000000000E+02
       REL_CUTOFF     6.0000000000000000E+01
     &END MGRID
     &XC
       DENSITY_CUTOFF     1.0000000000000000E-10
       GRADIENT_CUTOFF     1.0000000000000000E-10
       TAU_CUTOFF     1.0000000000000000E-10